##TITLE= em-lao
##JCAMP-DX= 4.24
##DATA TYPE= FL SPECTRUM
##ORIGIN= 
##OWNER= Lenovo
##DATE= 15:57:22, 05/11/2026
##SAMPLE DESCRIPTION= 1
##SPECTROMETER/DATA SYSTEM= Hitachi Model F-4600 FL Spectrophotometer;
Serial Number: 2313-003;
ROM Version: 5J24000 01;
##INSTRUMENT PARAMETERS= Scan mode= Emission;
Data mode= Fluorescence;
EX WL= 280.0 nm;
Scan speed= 1200 nm/min;
Delay= 0.0 s;
EX Slit= 2.5 nm;
EM Slit= 2.5 nm;
PMT Voltage= 700 V;
Response= 0.1 s;
Corrected spectra= Off;
##DELTAX= 0.2
##XLABEL= nm
##YLABEL= Data
##XUNITS= NANOMETERS
##YUNITS= ARBITRARY UNITS
##XFACTOR= 1.0
##YFACTOR= 1.0
##FIRSTX= 200.0
##LASTX= 900.0
##NPOINTS= 3501
##XYDATA= (X++(Y..Y))
200.0 0.518
200.2 0.401
200.4 0.262
200.6 0.316
200.8 0.348
201.0 0.391
201.2 0.432
201.4 0.480
201.6 0.552
201.8 0.618
202.0 0.499
202.2 0.418
202.4 0.410
202.6 0.435
202.8 0.480
203.0 0.466
203.2 0.403
203.4 0.390
203.6 0.399
203.8 0.486
204.0 0.496
204.2 0.527
204.4 0.465
204.6 0.436
204.8 0.377
205.0 0.312
205.2 0.280
205.4 0.360
205.6 0.537
205.8 0.715
206.0 0.598
206.2 0.672
206.4 0.517
206.6 0.593
206.8 0.478
207.0 0.455
207.2 0.427
207.4 0.428
207.6 0.392
207.8 0.273
208.0 0.393
208.2 0.329
208.4 0.276
208.6 0.359
208.8 0.358
209.0 0.360
209.2 0.325
209.4 0.358
209.6 0.516
209.8 0.567
210.0 0.470
210.2 0.385
210.4 0.471
210.6 0.525
210.8 0.444
211.0 0.328
211.2 0.366
211.4 0.297
211.6 0.355
211.8 0.298
212.0 0.430
212.2 0.389
212.4 0.450
212.6 0.582
212.8 0.587
213.0 0.476
213.2 0.362
213.4 0.265
213.6 0.226
213.8 0.324
214.0 0.405
214.2 0.373
214.4 0.753
214.6 0.787
214.8 0.773
215.0 0.657
215.2 0.532
215.4 0.504
215.6 0.640
215.8 0.464
216.0 0.354
216.2 0.448
216.4 0.403
216.6 0.470
216.8 0.501
217.0 0.497
217.2 0.467
217.4 0.765
217.6 0.709
217.8 0.558
218.0 0.647
218.2 0.751
218.4 0.772
218.6 0.482
218.8 0.419
219.0 0.417
219.2 0.363
219.4 0.400
219.6 0.406
219.8 0.471
220.0 0.520
220.2 0.510
220.4 0.428
220.6 0.726
220.8 0.589
221.0 0.557
221.2 0.567
221.4 0.385
221.6 0.276
221.8 0.272
222.0 0.321
222.2 0.274
222.4 0.409
222.6 0.280
222.8 0.272
223.0 0.271
223.2 0.230
223.4 0.205
223.6 0.194
223.8 0.278
224.0 0.322
224.2 0.220
224.4 0.286
224.6 0.178
224.8 0.114
225.0 0.169
225.2 0.412
225.4 0.380
225.6 0.445
225.8 0.564
226.0 0.538
226.2 0.432
226.4 0.437
226.6 0.402
226.8 0.326
227.0 0.338
227.2 0.271
227.4 0.307
227.6 0.338
227.8 0.366
228.0 0.232
228.2 0.290
228.4 0.268
228.6 0.214
228.8 0.195
229.0 0.150
229.2 0.221
229.4 0.416
229.6 0.256
229.8 0.130
230.0 0.198
230.2 0.227
230.4 0.166
230.6 0.209
230.8 0.182
231.0 0.472
231.2 0.536
231.4 0.621
231.6 0.508
231.8 0.508
232.0 0.267
232.2 0.222
232.4 0.321
232.6 0.413
232.8 0.312
233.0 0.282
233.2 0.257
233.4 0.277
233.6 0.343
233.8 0.348
234.0 0.479
234.2 0.369
234.4 0.414
234.6 0.399
234.8 0.353
235.0 0.272
235.2 0.420
235.4 0.377
235.6 0.441
235.8 0.482
236.0 0.358
236.2 0.262
236.4 0.213
236.6 0.237
236.8 0.257
237.0 0.322
237.2 0.544
237.4 0.604
237.6 0.539
237.8 0.379
238.0 0.295
238.2 0.383
238.4 0.364
238.6 0.299
238.8 0.316
239.0 0.311
239.2 0.417
239.4 0.388
239.6 0.570
239.8 0.485
240.0 0.297
240.2 0.358
240.4 0.357
240.6 0.359
240.8 0.370
241.0 0.414
241.2 0.429
241.4 0.447
241.6 0.381
241.8 0.306
242.0 0.520
242.2 0.515
242.4 0.492
242.6 0.462
242.8 0.464
243.0 0.541
243.2 0.467
243.4 0.736
243.6 0.507
243.8 0.304
244.0 0.414
244.2 0.328
244.4 0.259
244.6 0.226
244.8 0.577
245.0 0.474
245.2 0.430
245.4 0.518
245.6 0.496
245.8 0.361
246.0 0.352
246.2 0.337
246.4 0.361
246.6 0.565
246.8 0.561
247.0 0.419
247.2 0.441
247.4 0.492
247.6 0.739
247.8 0.540
248.0 0.360
248.2 0.211
248.4 0.425
248.6 0.415
248.8 0.444
249.0 0.503
249.2 0.645
249.4 0.608
249.6 0.728
249.8 0.693
250.0 0.534
250.2 0.710
250.4 0.516
250.6 0.515
250.8 0.383
251.0 0.244
251.2 0.507
251.4 0.466
251.6 0.538
251.8 0.622
252.0 0.614
252.2 0.584
252.4 0.584
252.6 0.574
252.8 0.603
253.0 0.665
253.2 0.474
253.4 0.446
253.6 0.558
253.8 0.368
254.0 0.543
254.2 0.612
254.4 0.537
254.6 0.389
254.8 0.407
255.0 0.425
255.2 0.763
255.4 1.023
255.6 1.024
255.8 1.081
256.0 0.806
256.2 0.663
256.4 0.688
256.6 0.769
256.8 0.550
257.0 0.731
257.2 0.634
257.4 0.492
257.6 0.345
257.8 0.469
258.0 0.438
258.2 0.306
258.4 0.308
258.6 0.395
258.8 0.452
259.0 0.550
259.2 0.548
259.4 0.525
259.6 0.558
259.8 0.685
260.0 0.453
260.2 0.508
260.4 0.749
260.6 0.555
260.8 0.892
261.0 0.890
261.2 0.691
261.4 0.680
261.6 0.552
261.8 0.606
262.0 0.477
262.2 0.387
262.4 0.561
262.6 0.529
262.8 0.487
263.0 0.498
263.2 0.557
263.4 0.931
263.6 0.715
263.8 1.009
264.0 0.789
264.2 0.844
264.4 0.857
264.6 0.796
264.8 0.614
265.0 0.759
265.2 1.094
265.4 0.800
265.6 0.949
265.8 0.918
266.0 0.894
266.2 0.926
266.4 0.728
266.6 0.716
266.8 0.530
267.0 0.800
267.2 0.944
267.4 1.065
267.6 1.214
267.8 1.064
268.0 0.895
268.2 0.972
268.4 0.849
268.6 0.755
268.8 0.647
269.0 0.516
269.2 0.664
269.4 0.905
269.6 0.872
269.8 0.951
270.0 0.708
270.2 0.582
270.4 0.720
270.6 0.643
270.8 0.732
271.0 0.712
271.2 0.653
271.4 1.078
271.6 0.959
271.8 0.885
272.0 0.962
272.2 0.751
272.4 0.669
272.6 0.754
272.8 0.820
273.0 0.881
273.2 1.200
273.4 0.996
273.6 1.121
273.8 1.183
274.0 1.157
274.2 1.469
274.4 1.744
274.6 2.076
274.8 1.994
275.0 2.452
275.2 3.295
275.4 3.415
275.6 4.130
275.8 5.690
276.0 6.827
276.2 9.924
276.4 13.41
276.6 17.49
276.8 23.04
277.0 28.82
277.2 35.44
277.4 45.27
277.6 56.23
277.8 70.30
278.0 81.59
278.2 96.80
278.4 111.7
278.6 128.9
278.8 147.3
279.0 164.4
279.2 185.9
279.4 204.1
279.6 224.3
279.8 240.1
280.0 259.5
280.2 271.3
280.4 287.0
280.6 298.0
280.8 310.7
281.0 317.5
281.2 317.6
281.4 319.3
281.6 318.1
281.8 321.7
282.0 316.3
282.2 311.2
282.4 299.2
282.6 289.7
282.8 283.4
283.0 275.7
283.2 271.0
283.4 261.4
283.6 258.2
283.8 252.9
284.0 254.0
284.2 262.1
284.4 266.1
284.6 276.2
284.8 287.5
285.0 301.8
285.2 319.3
285.4 341.2
285.6 365.9
285.8 391.6
286.0 421.9
286.2 453.9
286.4 487.1
286.6 512.3
286.8 544.8
287.0 587.7
287.2 626.8
287.4 663.7
287.6 704.7
287.8 747.3
288.0 786.9
288.2 824.4
288.4 856.8
288.6 904.0
288.8 942.4
289.0 979.6
289.2  1025
289.4  1072
289.6  1111
289.8  1151
290.0  1188
290.2  1228
290.4  1272
290.6  1315
290.8  1357
291.0  1392
291.2  1429
291.4  1476
291.6  1514
291.8  1554
292.0  1597
292.2  1626
292.4  1656
292.6  1689
292.8  1732
293.0  1769
293.2  1794
293.4  1835
293.6  1876
293.8  1911
294.0  1946
294.2  1974
294.4  2008
294.6  2042
294.8  2075
295.0  2099
295.2  2133
295.4  2161
295.6  2191
295.8  2213
296.0  2248
296.2  2275
296.4  2297
296.6  2322
296.8  2342
297.0  2369
297.2  2394
297.4  2424
297.6  2454
297.8  2474
298.0  2503
298.2  2519
298.4  2560
298.6  2573
298.8  2587
299.0  2596
299.2  2606
299.4  2623
299.6  2646
299.8  2660
300.0  2685
300.2  2682
300.4  2696
300.6  2702
300.8  2704
301.0  2714
301.2  2724
301.4  2741
301.6  2737
301.8  2735
302.0  2750
302.2  2738
302.4  2736
302.6  2742
302.8  2756
303.0  2775
303.2  2776
303.4  2763
303.6  2761
303.8  2775
304.0  2774
304.2  2769
304.4  2760
304.6  2760
304.8  2758
305.0  2736
305.2  2728
305.4  2725
305.6  2717
305.8  2718
306.0  2711
306.2  2708
306.4  2703
306.6  2693
306.8  2685
307.0  2684
307.2  2661
307.4  2648
307.6  2657
307.8  2631
308.0  2626
308.2  2619
308.4  2607
308.6  2595
308.8  2580
309.0  2553
309.2  2542
309.4  2539
309.6  2523
309.8  2509
310.0  2486
310.2  2465
310.4  2453
310.6  2438
310.8  2425
311.0  2412
311.2  2402
311.4  2371
311.6  2357
311.8  2339
312.0  2328
312.2  2298
312.4  2287
312.6  2267
312.8  2257
313.0  2232
313.2  2216
313.4  2197
313.6  2187
313.8  2176
314.0  2161
314.2  2128
314.4  2118
314.6  2090
314.8  2082
315.0  2061
315.2  2033
315.4  2005
315.6  1981
315.8  1960
316.0  1944
316.2  1920
316.4  1915
316.6  1894
316.8  1879
317.0  1862
317.2  1847
317.4  1829
317.6  1808
317.8  1802
318.0  1780
318.2  1751
318.4  1726
318.6  1705
318.8  1697
319.0  1677
319.2  1657
319.4  1642
319.6  1625
319.8  1608
320.0  1591
320.2  1566
320.4  1562
320.6  1545
320.8  1521
321.0  1512
321.2  1492
321.4  1482
321.6  1474
321.8  1446
322.0  1423
322.2  1407
322.4  1391
322.6  1372
322.8  1364
323.0  1339
323.2  1328
323.4  1312
323.6  1295
323.8  1274
324.0  1253
324.2  1235
324.4  1213
324.6  1197
324.8  1183
325.0  1174
325.2  1161
325.4  1149
325.6  1142
325.8  1122
326.0  1108
326.2  1087
326.4  1072
326.6  1058
326.8  1046
327.0  1029
327.2  1023
327.4  1008
327.6 989.9
327.8 974.6
328.0 973.1
328.2 961.0
328.4 946.5
328.6 929.1
328.8 911.7
329.0 900.9
329.2 898.1
329.4 897.7
329.6 889.0
329.8 878.8
330.0 866.5
330.2 856.5
330.4 845.1
330.6 826.1
330.8 811.2
331.0 795.5
331.2 787.0
331.4 771.8
331.6 760.9
331.8 746.2
332.0 742.1
332.2 724.4
332.4 719.2
332.6 709.7
332.8 700.3
333.0 684.5
333.2 678.4
333.4 666.8
333.6 654.6
333.8 647.8
334.0 634.2
334.2 626.2
334.4 615.8
334.6 607.5
334.8 600.0
335.0 594.4
335.2 585.2
335.4 573.6
335.6 566.4
335.8 554.9
336.0 552.2
336.2 547.2
336.4 538.6
336.6 531.1
336.8 521.7
337.0 512.5
337.2 509.1
337.4 501.7
337.6 493.3
337.8 485.3
338.0 478.7
338.2 471.0
338.4 465.6
338.6 462.6
338.8 450.4
339.0 445.2
339.2 444.6
339.4 434.0
339.6 422.2
339.8 416.4
340.0 408.0
340.2 405.4
340.4 400.4
340.6 390.7
340.8 383.0
341.0 377.7
341.2 374.4
341.4 364.2
341.6 358.2
341.8 355.7
342.0 351.5
342.2 346.8
342.4 344.1
342.6 339.9
342.8 336.2
343.0 330.1
343.2 322.1
343.4 315.8
343.6 313.7
343.8 305.9
344.0 297.7
344.2 294.8
344.4 294.0
344.6 291.3
344.8 289.2
345.0 282.5
345.2 280.6
345.4 272.5
345.6 271.2
345.8 266.2
346.0 260.2
346.2 256.6
346.4 255.8
346.6 246.7
346.8 242.3
347.0 238.6
347.2 234.8
347.4 232.9
347.6 230.1
347.8 226.1
348.0 225.3
348.2 221.1
348.4 219.0
348.6 216.2
348.8 215.5
349.0 212.6
349.2 208.7
349.4 200.7
349.6 197.6
349.8 197.3
350.0 192.2
350.2 187.2
350.4 184.1
350.6 184.6
350.8 180.1
351.0 177.6
351.2 178.4
351.4 176.7
351.6 174.8
351.8 170.9
352.0 169.2
352.2 166.3
352.4 163.2
352.6 161.7
352.8 159.7
353.0 154.1
353.2 152.5
353.4 146.6
353.6 146.9
353.8 144.7
354.0 146.1
354.2 143.3
354.4 141.6
354.6 139.1
354.8 135.7
355.0 132.8
355.2 129.2
355.4 129.9
355.6 128.0
355.8 128.2
356.0 125.4
356.2 121.5
356.4 120.8
356.6 119.6
356.8 116.3
357.0 113.0
357.2 112.4
357.4 109.5
357.6 108.7
357.8 106.1
358.0 103.4
358.2 103.1
358.4 101.2
358.6 98.93
358.8 101.5
359.0 98.05
359.2 97.15
359.4 97.13
359.6 95.40
359.8 94.90
360.0 95.34
360.2 93.18
360.4 88.24
360.6 86.91
360.8 85.32
361.0 82.70
361.2 81.46
361.4 80.36
361.6 80.04
361.8 79.50
362.0 76.98
362.2 75.96
362.4 75.44
362.6 73.40
362.8 73.21
363.0 73.65
363.2 73.11
363.4 71.02
363.6 70.05
363.8 69.54
364.0 69.06
364.2 67.94
364.4 68.11
364.6 65.07
364.8 63.88
365.0 62.54
365.2 62.38
365.4 61.61
365.6 60.66
365.8 60.47
366.0 59.70
366.2 57.74
366.4 55.98
366.6 55.02
366.8 54.88
367.0 53.54
367.2 52.96
367.4 51.97
367.6 51.62
367.8 50.20
368.0 48.42
368.2 47.33
368.4 47.71
368.6 48.00
368.8 47.23
369.0 47.34
369.2 45.79
369.4 46.09
369.6 46.63
369.8 44.52
370.0 42.10
370.2 42.57
370.4 42.81
370.6 44.13
370.8 42.23
371.0 40.22
371.2 40.48
371.4 39.79
371.6 38.79
371.8 38.70
372.0 37.47
372.2 37.15
372.4 35.39
372.6 33.53
372.8 33.69
373.0 33.28
373.2 33.27
373.4 31.49
373.6 32.14
373.8 31.19
374.0 30.18
374.2 31.32
374.4 31.80
374.6 30.43
374.8 30.39
375.0 31.79
375.2 30.23
375.4 29.88
375.6 28.73
375.8 28.94
376.0 28.26
376.2 28.48
376.4 27.48
376.6 27.48
376.8 26.48
377.0 26.44
377.2 25.97
377.4 25.45
377.6 24.47
377.8 24.40
378.0 25.01
378.2 25.01
378.4 24.50
378.6 23.71
378.8 23.69
379.0 23.73
379.2 23.40
379.4 23.98
379.6 23.19
379.8 22.52
380.0 21.38
380.2 22.45
380.4 21.71
380.6 20.24
380.8 19.41
381.0 18.48
381.2 18.21
381.4 19.21
381.6 19.13
381.8 18.38
382.0 18.35
382.2 19.94
382.4 19.19
382.6 18.62
382.8 18.15
383.0 18.67
383.2 19.26
383.4 17.90
383.6 17.84
383.8 18.00
384.0 17.93
384.2 17.11
384.4 16.73
384.6 16.68
384.8 15.81
385.0 15.64
385.2 15.14
385.4 14.52
385.6 14.81
385.8 14.77
386.0 15.23
386.2 16.15
386.4 15.58
386.6 15.21
386.8 14.77
387.0 13.73
387.2 13.88
387.4 13.22
387.6 12.93
387.8 13.03
388.0 12.84
388.2 12.96
388.4 13.14
388.6 12.77
388.8 12.27
389.0 12.87
389.2 12.58
389.4 11.86
389.6 12.37
389.8 12.49
390.0 11.66
390.2 11.68
390.4 11.52
390.6 12.12
390.8 11.45
391.0 11.20
391.2 11.59
391.4 11.57
391.6 10.25
391.8 10.02
392.0 9.897
392.2 10.38
392.4 10.15
392.6 10.05
392.8 9.998
393.0 10.58
393.2 10.52
393.4 10.70
393.6 10.85
393.8 11.22
394.0 10.54
394.2 10.47
394.4 10.32
394.6 10.02
394.8 9.472
395.0 8.661
395.2 8.472
395.4 9.260
395.6 8.529
395.8 8.562
396.0 9.378
396.2 9.640
396.4 9.272
396.6 9.727
396.8 9.379
397.0 8.744
397.2 8.443
397.4 8.148
397.6 7.646
397.8 7.759
398.0 8.341
398.2 8.420
398.4 8.439
398.6 8.624
398.8 8.543
399.0 8.315
399.2 8.802
399.4 8.136
399.6 7.684
399.8 7.336
400.0 7.214
400.2 6.991
400.4 6.712
400.6 7.136
400.8 7.198
401.0 7.460
401.2 7.352
401.4 7.147
401.6 6.949
401.8 7.269
402.0 7.019
402.2 7.194
402.4 6.931
402.6 7.129
402.8 6.825
403.0 6.356
403.2 6.708
403.4 6.695
403.6 6.675
403.8 6.936
404.0 6.883
404.2 6.583
404.4 7.007
404.6 7.110
404.8 6.426
405.0 6.906
405.2 7.068
405.4 7.024
405.6 6.862
405.8 6.569
406.0 6.261
406.2 6.466
406.4 6.015
406.6 6.263
406.8 5.879
407.0 5.597
407.2 6.331
407.4 6.345
407.6 5.745
407.8 5.315
408.0 4.756
408.2 5.211
408.4 5.322
408.6 5.658
408.8 5.137
409.0 5.428
409.2 5.715
409.4 5.390
409.6 5.874
409.8 5.567
410.0 5.360
410.2 4.775
410.4 4.821
410.6 5.105
410.8 4.953
411.0 4.760
411.2 4.481
411.4 5.290
411.6 5.561
411.8 4.627
412.0 4.132
412.2 4.124
412.4 3.663
412.6 4.150
412.8 4.840
413.0 4.608
413.2 4.436
413.4 4.562
413.6 4.958
413.8 4.574
414.0 4.624
414.2 4.377
414.4 4.206
414.6 3.704
414.8 3.691
415.0 3.458
415.2 3.743
415.4 3.902
415.6 4.048
415.8 4.488
416.0 4.972
416.2 4.880
416.4 4.854
416.6 4.341
416.8 4.038
417.0 4.385
417.2 3.896
417.4 3.758
417.6 3.463
417.8 3.547
418.0 3.694
418.2 3.504
418.4 4.150
418.6 3.752
418.8 3.646
419.0 3.486
419.2 3.302
419.4 3.124
419.6 3.028
419.8 3.090
420.0 2.915
420.2 3.253
420.4 3.203
420.6 3.272
420.8 3.351
421.0 3.499
421.2 3.321
421.4 3.852
421.6 3.906
421.8 4.235
422.0 4.375
422.2 3.912
422.4 3.819
422.6 3.576
422.8 3.975
423.0 3.709
423.2 3.329
423.4 3.536
423.6 3.551
423.8 3.061
424.0 3.206
424.2 3.476
424.4 3.508
424.6 3.544
424.8 3.367
425.0 3.176
425.2 3.212
425.4 3.188
425.6 2.846
425.8 2.516
426.0 2.639
426.2 2.710
426.4 2.658
426.6 2.648
426.8 2.943
427.0 2.984
427.2 2.818
427.4 3.070
427.6 2.848
427.8 3.247
428.0 3.194
428.2 2.966
428.4 2.552
428.6 3.040
428.8 3.066
429.0 3.244
429.2 3.236
429.4 2.992
429.6 2.565
429.8 2.275
430.0 2.332
430.2 2.424
430.4 2.454
430.6 2.233
430.8 2.919
431.0 3.471
431.2 3.208
431.4 2.914
431.6 2.944
431.8 2.841
432.0 2.735
432.2 2.495
432.4 2.238
432.6 2.403
432.8 2.301
433.0 2.551
433.2 2.140
433.4 1.955
433.6 2.449
433.8 2.585
434.0 2.227
434.2 2.110
434.4 2.151
434.6 2.284
434.8 2.273
435.0 1.750
435.2 2.020
435.4 2.081
435.6 2.203
435.8 2.411
436.0 2.117
436.2 2.150
436.4 1.916
436.6 2.352
436.8 2.231
437.0 1.934
437.2 1.857
437.4 1.997
437.6 1.810
437.8 1.843
438.0 1.754
438.2 1.934
438.4 2.039
438.6 1.712
438.8 1.652
439.0 2.196
439.2 2.194
439.4 2.319
439.6 2.100
439.8 1.892
440.0 2.069
440.2 1.989
440.4 1.899
440.6 2.074
440.8 1.670
441.0 1.253
441.2 1.349
441.4 1.458
441.6 1.663
441.8 1.969
442.0 1.970
442.2 1.827
442.4 2.197
442.6 2.033
442.8 1.673
443.0 1.949
443.2 1.970
443.4 1.550
443.6 1.954
443.8 1.809
444.0 1.570
444.2 1.655
444.4 1.396
444.6 1.438
444.8 1.402
445.0 1.267
445.2 1.149
445.4 1.067
445.6 1.468
445.8 1.985
446.0 1.845
446.2 2.025
446.4 1.950
446.6 2.153
446.8 1.748
447.0 1.821
447.2 1.729
447.4 1.630
447.6 1.483
447.8 1.371
448.0 1.382
448.2 1.292
448.4 1.744
448.6 1.585
448.8 1.434
449.0 1.393
449.2 1.320
449.4 1.378
449.6 1.421
449.8 1.240
450.0 1.262
450.2 1.289
450.4 1.634
450.6 1.860
450.8 1.916
451.0 1.573
451.2 1.677
451.4 1.616
451.6 1.674
451.8 1.752
452.0 1.617
452.2 2.199
452.4 1.895
452.6 1.854
452.8 1.628
453.0 1.331
453.2 1.215
453.4 1.022
453.6 1.492
453.8 2.045
454.0 1.938
454.2 1.690
454.4 1.649
454.6 1.848
454.8 1.571
455.0 1.664
455.2 1.245
455.4 1.154
455.6 1.075
455.8 1.063
456.0 1.297
456.2 1.246
456.4 1.257
456.6 1.083
456.8 1.309
457.0 1.194
457.2 1.315
457.4 1.036
457.6 0.896
457.8 0.764
458.0 0.800
458.2 0.861
458.4 1.135
458.6 0.837
458.8 0.910
459.0 1.200
459.2 0.996
459.4 1.146
459.6 1.123
459.8 1.259
460.0 1.082
460.2 1.103
460.4 1.056
460.6 1.099
460.8 1.087
461.0 1.247
461.2 1.120
461.4 1.211
461.6 1.111
461.8 1.066
462.0 1.045
462.2 1.077
462.4 1.126
462.6 1.167
462.8 1.077
463.0 1.367
463.2 1.254
463.4 1.180
463.6 1.144
463.8 1.050
464.0 1.167
464.2 1.010
464.4 0.845
464.6 0.923
464.8 0.844
465.0 0.546
465.2 0.578
465.4 0.806
465.6 0.821
465.8 0.774
466.0 1.067
466.2 1.244
466.4 1.007
466.6 1.162
466.8 1.037
467.0 0.961
467.2 0.935
467.4 1.008
467.6 0.942
467.8 1.284
468.0 1.207
468.2 1.246
468.4 1.074
468.6 0.895
468.8 0.843
469.0 0.708
469.2 1.243
469.4 1.093
469.6 1.104
469.8 0.769
470.0 0.627
470.2 0.662
470.4 0.626
470.6 0.631
470.8 0.616
471.0 0.553
471.2 0.714
471.4 1.193
471.6 1.229
471.8 1.357
472.0 1.156
472.2 1.124
472.4 1.339
472.6 1.206
472.8 1.313
473.0 1.059
473.2 0.924
473.4 0.947
473.6 0.803
473.8 0.508
474.0 0.635
474.2 0.695
474.4 0.739
474.6 0.860
474.8 0.751
475.0 0.746
475.2 0.842
475.4 1.019
475.6 0.863
475.8 0.879
476.0 0.905
476.2 0.871
476.4 1.080
476.6 1.225
476.8 1.360
477.0 1.079
477.2 1.002
477.4 0.765
477.6 0.997
477.8 0.753
478.0 0.706
478.2 0.570
478.4 0.504
478.6 0.425
478.8 0.644
479.0 0.897
479.2 0.706
479.4 1.063
479.6 1.034
479.8 1.143
480.0 1.000
480.2 0.706
480.4 0.734
480.6 0.621
480.8 0.844
481.0 0.645
481.2 0.750
481.4 0.524
481.6 0.705
481.8 0.713
482.0 0.710
482.2 0.551
482.4 0.621
482.6 0.752
482.8 0.719
483.0 0.942
483.2 1.126
483.4 1.144
483.6 0.971
483.8 0.823
484.0 0.926
484.2 0.772
484.4 1.062
484.6 0.939
484.8 0.845
485.0 0.974
485.2 0.682
485.4 0.569
485.6 0.753
485.8 0.691
486.0 0.629
486.2 0.539
486.4 0.661
486.6 0.658
486.8 0.559
487.0 0.491
487.2 0.885
487.4 0.861
487.6 0.778
487.8 0.773
488.0 0.834
488.2 0.904
488.4 0.864
488.6 0.823
488.8 0.669
489.0 0.634
489.2 0.612
489.4 0.575
489.6 0.662
489.8 0.716
490.0 0.651
490.2 0.471
490.4 0.496
490.6 0.360
490.8 0.305
491.0 0.511
491.2 0.593
491.4 0.501
491.6 0.531
491.8 0.719
492.0 0.757
492.2 0.690
492.4 0.565
492.6 0.517
492.8 0.724
493.0 0.769
493.2 1.054
493.4 1.110
493.6 0.991
493.8 0.923
494.0 0.718
494.2 0.758
494.4 0.722
494.6 0.831
494.8 0.978
495.0 0.904
495.2 0.669
495.4 0.746
495.6 0.547
495.8 0.719
496.0 0.581
496.2 0.445
496.4 0.417
496.6 0.394
496.8 0.537
497.0 0.604
497.2 0.454
497.4 0.475
497.6 0.613
497.8 0.640
498.0 0.406
498.2 0.324
498.4 0.249
498.6 0.364
498.8 0.550
499.0 0.685
499.2 0.641
499.4 0.682
499.6 0.660
499.8 0.515
500.0 0.521
500.2 0.379
500.4 0.162
500.6 0.221
500.8 0.418
501.0 0.535
501.2 0.706
501.4 0.610
501.6 0.614
501.8 0.609
502.0 0.519
502.2 0.465
502.4 0.726
502.6 0.612
502.8 0.534
503.0 0.732
503.2 0.670
503.4 0.619
503.6 0.508
503.8 0.457
504.0 0.515
504.2 0.691
504.4 0.626
504.6 0.635
504.8 0.559
505.0 0.529
505.2 0.785
505.4 0.719
505.6 0.605
505.8 0.754
506.0 0.717
506.2 0.559
506.4 0.520
506.6 0.515
506.8 0.388
507.0 0.286
507.2 0.211
507.4 0.316
507.6 0.499
507.8 0.444
508.0 0.495
508.2 0.408
508.4 0.370
508.6 0.305
508.8 0.293
509.0 0.313
509.2 0.368
509.4 0.322
509.6 0.357
509.8 0.197
510.0 0.318
510.2 0.174
510.4 0.318
510.6 0.344
510.8 0.303
511.0 0.248
511.2 0.343
511.4 0.461
511.6 0.699
511.8 0.638
512.0 0.498
512.2 0.498
512.4 0.594
512.6 0.437
512.8 0.334
513.0 0.406
513.2 0.300
513.4 0.259
513.6 0.280
513.8 0.287
514.0 0.398
514.2 0.521
514.4 0.560
514.6 0.607
514.8 0.551
515.0 0.550
515.2 0.698
515.4 0.535
515.6 0.432
515.8 0.564
516.0 0.464
516.2 0.564
516.4 0.545
516.6 0.429
516.8 0.422
517.0 0.546
517.2 0.596
517.4 0.624
517.6 0.494
517.8 0.412
518.0 0.639
518.2 0.515
518.4 0.406
518.6 0.447
518.8 0.547
519.0 0.453
519.2 0.675
519.4 0.363
519.6 0.318
519.8 0.381
520.0 0.529
520.2 0.499
520.4 0.479
520.6 0.554
520.8 0.498
521.0 0.292
521.2 0.661
521.4 0.540
521.6 0.533
521.8 0.806
522.0 0.650
522.2 0.532
522.4 0.630
522.6 0.642
522.8 0.459
523.0 0.387
523.2 0.769
523.4 0.560
523.6 0.498
523.8 0.879
524.0 0.780
524.2 0.809
524.4 0.875
524.6 0.784
524.8 0.754
525.0 0.720
525.2 0.729
525.4 0.744
525.6 0.962
525.8 0.874
526.0 0.755
526.2 0.547
526.4 0.551
526.6 0.447
526.8 0.569
527.0 0.517
527.2 0.611
527.4 0.503
527.6 0.453
527.8 0.537
528.0 0.745
528.2 0.737
528.4 0.692
528.6 0.928
528.8 0.742
529.0 0.592
529.2 0.543
529.4 0.329
529.6 0.412
529.8 0.312
530.0 0.484
530.2 0.411
530.4 0.365
530.6 0.310
530.8 0.322
531.0 0.243
531.2 0.234
531.4 0.419
531.6 0.482
531.8 0.476
532.0 0.431
532.2 0.545
532.4 0.509
532.6 0.654
532.8 0.678
533.0 0.561
533.2 0.598
533.4 0.652
533.6 0.582
533.8 0.406
534.0 0.293
534.2 0.353
534.4 0.250
534.6 0.545
534.8 0.402
535.0 0.403
535.2 0.440
535.4 0.411
535.6 0.609
535.8 0.606
536.0 0.487
536.2 0.732
536.4 0.520
536.6 0.528
536.8 0.551
537.0 0.504
537.2 0.410
537.4 0.352
537.6 0.545
537.8 0.535
538.0 0.541
538.2 0.684
538.4 0.525
538.6 0.481
538.8 0.396
539.0 0.836
539.2 0.976
539.4 0.855
539.6 0.837
539.8 1.111
540.0 1.147
540.2 0.897
540.4 0.748
540.6 0.534
540.8 0.462
541.0 0.490
541.2 0.704
541.4 0.746
541.6 0.661
541.8 0.479
542.0 0.907
542.2 0.806
542.4 0.762
542.6 0.721
542.8 0.534
543.0 0.461
543.2 0.527
543.4 0.604
543.6 0.657
543.8 0.537
544.0 0.519
544.2 0.474
544.4 0.612
544.6 0.546
544.8 0.544
545.0 0.428
545.2 0.478
545.4 0.314
545.6 0.332
545.8 0.450
546.0 0.655
546.2 0.628
546.4 0.486
546.6 0.536
546.8 0.498
547.0 0.590
547.2 0.754
547.4 0.670
547.6 0.742
547.8 0.824
548.0 0.596
548.2 0.616
548.4 0.722
548.6 0.671
548.8 0.545
549.0 0.525
549.2 0.686
549.4 0.678
549.6 0.853
549.8 0.651
550.0 0.826
550.2 0.757
550.4 0.953
550.6 0.776
550.8 0.936
551.0 1.177
551.2 1.157
551.4 1.143
551.6 1.224
551.8 1.338
552.0 1.619
552.2 1.905
552.4 2.404
552.6 2.402
552.8 2.752
553.0 3.010
553.2 3.946
553.4 4.801
553.6 6.082
553.8 6.345
554.0 7.457
554.2 8.185
554.4 9.721
554.6 11.01
554.8 12.94
555.0 14.28
555.2 16.11
555.4 18.14
555.6 19.84
555.8 21.91
556.0 25.15
556.2 27.69
556.4 29.62
556.6 30.82
556.8 33.30
557.0 34.60
557.2 37.63
557.4 39.61
557.6 42.50
557.8 45.54
558.0 47.51
558.2 48.79
558.4 51.67
558.6 53.18
558.8 53.92
559.0 55.17
559.2 55.41
559.4 55.41
559.6 58.01
559.8 59.12
560.0 61.23
560.2 58.27
560.4 57.69
560.6 56.74
560.8 56.67
561.0 56.49
561.2 55.76
561.4 53.62
561.6 52.29
561.8 50.78
562.0 48.90
562.2 48.05
562.4 46.44
562.6 43.81
562.8 42.23
563.0 41.50
563.2 39.98
563.4 38.10
563.6 37.72
563.8 36.49
564.0 34.21
564.2 32.70
564.4 30.38
564.6 29.77
564.8 28.96
565.0 29.05
565.2 28.59
565.4 28.21
565.6 27.64
565.8 27.06
566.0 28.04
566.2 27.85
566.4 28.66
566.6 27.02
566.8 26.80
567.0 27.62
567.2 27.97
567.4 27.91
567.6 29.45
567.8 31.47
568.0 31.21
568.2 32.08
568.4 33.67
568.6 34.50
568.8 36.21
569.0 38.52
569.2 40.63
569.4 40.75
569.6 42.26
569.8 44.63
570.0 47.33
570.2 48.94
570.4 51.04
570.6 51.89
570.8 52.52
571.0 55.31
571.2 59.11
571.4 60.28
571.6 61.70
571.8 63.58
572.0 65.28
572.2 70.15
572.4 70.77
572.6 73.04
572.8 76.53
573.0 75.61
573.2 77.65
573.4 80.24
573.6 85.84
573.8 88.17
574.0 88.73
574.2 90.73
574.4 93.25
574.6 95.35
574.8 94.17
575.0 97.20
575.2 100.4
575.4 103.1
575.6 106.3
575.8 105.9
576.0 107.9
576.2 110.2
576.4 113.1
576.6 116.8
576.8 117.7
577.0 121.0
577.2 124.4
577.4 124.4
577.6 127.7
577.8 129.3
578.0 132.0
578.2 134.3
578.4 134.0
578.6 137.9
578.8 137.0
579.0 141.5
579.2 142.0
579.4 143.5
579.6 143.4
579.8 146.9
580.0 145.8
580.2 150.8
580.4 152.0
580.6 155.1
580.8 155.8
581.0 157.0
581.2 158.5
581.4 159.2
581.6 160.3
581.8 161.7
582.0 165.4
582.2 168.6
582.4 171.4
582.6 176.0
582.8 178.6
583.0 178.7
583.2 178.9
583.4 180.2
583.6 185.0
583.8 182.0
584.0 185.2
584.2 184.6
584.4 184.1
584.6 183.6
584.8 187.7
585.0 189.3
585.2 187.8
585.4 190.9
585.6 193.0
585.8 193.0
586.0 197.4
586.2 197.5
586.4 201.9
586.6 201.8
586.8 202.2
587.0 205.1
587.2 207.8
587.4 206.8
587.6 210.4
587.8 209.9
588.0 207.5
588.2 213.4
588.4 215.7
588.6 216.6
588.8 214.4
589.0 214.1
589.2 216.1
589.4 218.3
589.6 220.6
589.8 220.7
590.0 223.0
590.2 223.4
590.4 226.1
590.6 228.8
590.8 230.1
591.0 228.7
591.2 230.6
591.4 233.5
591.6 235.7
591.8 235.9
592.0 234.9
592.2 236.0
592.4 234.7
592.6 237.1
592.8 238.6
593.0 236.9
593.2 238.1
593.4 235.5
593.6 235.5
593.8 234.8
594.0 239.5
594.2 239.3
594.4 241.7
594.6 240.7
594.8 241.0
595.0 241.9
595.2 241.5
595.4 240.6
595.6 243.7
595.8 243.3
596.0 239.5
596.2 240.6
596.4 239.6
596.6 238.8
596.8 241.8
597.0 245.9
597.2 244.1
597.4 244.4
597.6 242.3
597.8 243.5
598.0 242.1
598.2 240.9
598.4 244.2
598.6 249.8
598.8 248.3
599.0 250.5
599.2 250.3
599.4 254.2
599.6 250.7
599.8 254.0
600.0 251.0
600.2 248.5
600.4 247.0
600.6 245.0
600.8 245.0
601.0 245.3
601.2 246.0
601.4 245.9
601.6 248.1
601.8 244.0
602.0 243.2
602.2 243.9
602.4 246.3
602.6 245.8
602.8 244.1
603.0 247.2
603.2 249.3
603.4 252.8
603.6 247.5
603.8 245.5
604.0 243.3
604.2 242.0
604.4 242.4
604.6 238.3
604.8 238.4
605.0 238.1
605.2 239.3
605.4 240.4
605.6 238.0
605.8 233.1
606.0 234.8
606.2 237.6
606.4 235.3
606.6 235.3
606.8 234.0
607.0 232.9
607.2 230.1
607.4 229.6
607.6 234.4
607.8 232.7
608.0 231.6
608.2 230.2
608.4 231.6
608.6 232.1
608.8 231.7
609.0 232.8
609.2 233.3
609.4 230.8
609.6 228.8
609.8 224.6
610.0 227.1
610.2 225.7
610.4 226.8
610.6 223.5
610.8 222.6
611.0 223.7
611.2 224.7
611.4 223.5
611.6 224.8
611.8 223.3
612.0 223.5
612.2 219.4
612.4 222.1
612.6 221.7
612.8 218.4
613.0 216.9
613.2 220.5
613.4 221.3
613.6 219.0
613.8 218.1
614.0 217.4
614.2 214.8
614.4 214.1
614.6 214.0
614.8 210.7
615.0 208.6
615.2 208.3
615.4 205.9
615.6 205.2
615.8 202.4
616.0 200.8
616.2 199.3
616.4 198.4
616.6 200.5
616.8 201.1
617.0 197.5
617.2 198.1
617.4 200.1
617.6 199.6
617.8 197.4
618.0 194.8
618.2 197.6
618.4 195.4
618.6 196.7
618.8 194.3
619.0 195.6
619.2 196.5
619.4 194.0
619.6 193.5
619.8 190.9
620.0 189.7
620.2 187.8
620.4 186.6
620.6 185.2
620.8 184.0
621.0 185.8
621.2 185.8
621.4 184.2
621.6 185.0
621.8 183.0
622.0 180.8
622.2 178.8
622.4 179.0
622.6 176.0
622.8 172.4
623.0 172.5
623.2 174.2
623.4 171.2
623.6 174.0
623.8 170.9
624.0 169.6
624.2 168.3
624.4 166.2
624.6 168.6
624.8 165.3
625.0 165.0
625.2 163.6
625.4 163.2
625.6 163.8
625.8 162.7
626.0 159.7
626.2 159.5
626.4 162.4
626.6 161.1
626.8 159.2
627.0 159.5
627.2 160.9
627.4 156.9
627.6 155.9
627.8 154.2
628.0 152.3
628.2 152.6
628.4 149.2
628.6 145.0
628.8 147.1
629.0 145.4
629.2 144.1
629.4 145.7
629.6 143.3
629.8 143.0
630.0 140.1
630.2 142.2
630.4 139.6
630.6 138.1
630.8 138.6
631.0 136.1
631.2 136.4
631.4 135.5
631.6 136.7
631.8 135.4
632.0 134.2
632.2 134.1
632.4 134.9
632.6 133.6
632.8 130.7
633.0 132.0
633.2 129.0
633.4 131.3
633.6 130.9
633.8 125.8
634.0 123.5
634.2 126.4
634.4 122.8
634.6 123.2
634.8 126.6
635.0 125.1
635.2 121.3
635.4 122.1
635.6 123.7
635.8 120.4
636.0 119.7
636.2 116.5
636.4 116.6
636.6 116.5
636.8 115.2
637.0 111.1
637.2 113.1
637.4 109.5
637.6 110.6
637.8 108.1
638.0 109.3
638.2 109.7
638.4 109.5
638.6 107.7
638.8 104.7
639.0 103.1
639.2 107.0
639.4 106.8
639.6 104.5
639.8 105.2
640.0 103.3
640.2 103.0
640.4 103.5
640.6 103.4
640.8 101.2
641.0 100.3
641.2 98.59
641.4 95.00
641.6 93.46
641.8 94.76
642.0 96.04
642.2 93.95
642.4 93.95
642.6 96.98
642.8 95.46
643.0 95.07
643.2 92.26
643.4 92.39
643.6 92.83
643.8 90.70
644.0 89.46
644.2 85.66
644.4 85.15
644.6 86.07
644.8 85.22
645.0 86.43
645.2 84.39
645.4 83.16
645.6 83.22
645.8 84.69
646.0 85.18
646.2 84.47
646.4 83.14
646.6 82.08
646.8 83.90
647.0 82.90
647.2 80.72
647.4 76.20
647.6 76.09
647.8 76.50
648.0 75.39
648.2 74.75
648.4 74.88
648.6 75.24
648.8 75.75
649.0 74.56
649.2 73.54
649.4 73.20
649.6 71.56
649.8 73.30
650.0 70.34
650.2 70.44
650.4 70.08
650.6 72.03
650.8 69.27
651.0 70.52
651.2 67.31
651.4 66.07
651.6 67.07
651.8 66.39
652.0 65.99
652.2 65.19
652.4 64.97
652.6 63.63
652.8 60.41
653.0 58.33
653.2 58.17
653.4 60.84
653.6 59.54
653.8 59.42
654.0 57.48
654.2 57.68
654.4 59.03
654.6 59.52
654.8 58.79
655.0 58.12
655.2 57.70
655.4 57.06
655.6 55.95
655.8 55.35
656.0 55.72
656.2 55.56
656.4 53.73
656.6 54.22
656.8 53.64
657.0 52.33
657.2 52.98
657.4 51.58
657.6 51.32
657.8 51.57
658.0 51.98
658.2 51.63
658.4 51.26
658.6 50.64
658.8 50.55
659.0 50.56
659.2 50.03
659.4 48.72
659.6 47.34
659.8 45.66
660.0 45.85
660.2 44.64
660.4 45.76
660.6 44.16
660.8 43.03
661.0 44.59
661.2 44.79
661.4 45.24
661.6 44.75
661.8 44.19
662.0 43.39
662.2 42.42
662.4 42.08
662.6 43.15
662.8 42.34
663.0 40.82
663.2 42.24
663.4 40.72
663.6 39.36
663.8 38.23
664.0 39.98
664.2 40.37
664.4 39.34
664.6 39.37
664.8 38.87
665.0 38.20
665.2 37.84
665.4 36.08
665.6 35.73
665.8 35.70
666.0 35.96
666.2 34.47
666.4 33.04
666.6 34.57
666.8 34.89
667.0 34.93
667.2 34.73
667.4 34.52
667.6 32.08
667.8 31.91
668.0 31.77
668.2 30.85
668.4 32.94
668.6 32.82
668.8 32.42
669.0 31.97
669.2 31.85
669.4 31.17
669.6 31.32
669.8 30.06
670.0 30.49
670.2 31.00
670.4 32.15
670.6 29.95
670.8 29.78
671.0 30.02
671.2 28.74
671.4 27.55
671.6 27.75
671.8 27.78
672.0 26.35
672.2 26.71
672.4 26.37
672.6 26.23
672.8 26.07
673.0 27.09
673.2 27.76
673.4 26.87
673.6 26.59
673.8 26.60
674.0 26.29
674.2 25.38
674.4 25.15
674.6 25.00
674.8 24.96
675.0 24.57
675.2 23.93
675.4 23.23
675.6 22.24
675.8 23.00
676.0 23.13
676.2 22.21
676.4 22.46
676.6 21.21
676.8 21.52
677.0 21.53
677.2 21.98
677.4 22.87
677.6 22.93
677.8 21.69
678.0 21.87
678.2 21.80
678.4 21.83
678.6 21.72
678.8 20.81
679.0 20.80
679.2 22.01
679.4 21.34
679.6 21.02
679.8 20.48
680.0 20.74
680.2 20.66
680.4 19.18
680.6 19.41
680.8 18.88
681.0 19.36
681.2 19.08
681.4 18.78
681.6 18.83
681.8 18.46
682.0 17.74
682.2 17.20
682.4 17.93
682.6 17.11
682.8 17.71
683.0 16.71
683.2 16.61
683.4 16.50
683.6 16.57
683.8 16.03
684.0 15.69
684.2 15.34
684.4 15.58
684.6 14.82
684.8 15.82
685.0 15.30
685.2 15.27
685.4 14.60
685.6 14.43
685.8 15.32
686.0 15.76
686.2 16.72
686.4 16.57
686.6 15.24
686.8 15.39
687.0 14.80
687.2 14.79
687.4 14.15
687.6 13.65
687.8 13.34
688.0 13.33
688.2 13.49
688.4 12.99
688.6 13.70
688.8 13.78
689.0 12.86
689.2 13.26
689.4 12.59
689.6 12.53
689.8 11.66
690.0 11.14
690.2 11.24
690.4 11.17
690.6 11.40
690.8 12.07
691.0 12.40
691.2 11.26
691.4 11.12
691.6 10.90
691.8 11.12
692.0 10.67
692.2 10.80
692.4 10.51
692.6 11.08
692.8 10.99
693.0 10.72
693.2 10.31
693.4 10.13
693.6 10.05
693.8 9.931
694.0 9.785
694.2 10.13
694.4 9.479
694.6 9.168
694.8 9.598
695.0 9.512
695.2 9.429
695.4 9.454
695.6 9.148
695.8 9.175
696.0 9.116
696.2 9.696
696.4 8.790
696.6 8.756
696.8 9.128
697.0 9.006
697.2 8.177
697.4 7.876
697.6 8.397
697.8 8.255
698.0 8.265
698.2 8.760
698.4 8.865
698.6 8.746
698.8 8.547
699.0 8.041
699.2 8.526
699.4 8.665
699.6 8.334
699.8 7.800
700.0 8.411
700.2 8.476
700.4 7.777
700.6 8.319
700.8 8.406
701.0 7.915
701.2 7.822
701.4 7.476
701.6 8.004
701.8 7.513
702.0 6.839
702.2 6.960
702.4 6.525
702.6 6.037
702.8 6.219
703.0 6.504
703.2 6.685
703.4 6.222
703.6 6.456
703.8 6.372
704.0 6.066
704.2 6.412
704.4 6.074
704.6 6.613
704.8 6.924
705.0 7.080
705.2 6.633
705.4 6.607
705.6 6.322
705.8 6.093
706.0 5.975
706.2 5.805
706.4 5.600
706.6 5.738
706.8 5.347
707.0 4.824
707.2 4.957
707.4 4.781
707.6 5.141
707.8 5.240
708.0 5.210
708.2 5.180
708.4 5.142
708.6 5.145
708.8 4.882
709.0 4.760
709.2 4.722
709.4 4.698
709.6 4.740
709.8 4.384
710.0 4.257
710.2 4.501
710.4 4.926
710.6 4.795
710.8 5.061
711.0 5.017
711.2 4.815
711.4 4.632
711.6 4.983
711.8 4.786
712.0 4.568
712.2 4.726
712.4 4.448
712.6 4.095
712.8 3.954
713.0 4.298
713.2 4.529
713.4 5.166
713.6 4.944
713.8 5.238
714.0 5.284
714.2 4.800
714.4 4.781
714.6 4.442
714.8 4.418
715.0 4.202
715.2 3.781
715.4 4.097
715.6 3.924
715.8 4.081
716.0 4.846
716.2 4.314
716.4 4.018
716.6 3.342
716.8 2.957
717.0 3.435
717.2 3.613
717.4 3.743
717.6 3.481
717.8 3.535
718.0 3.388
718.2 3.584
718.4 3.786
718.6 3.391
718.8 3.458
719.0 3.476
719.2 4.133
719.4 3.444
719.6 2.964
719.8 3.237
720.0 3.392
720.2 3.637
720.4 3.638
720.6 3.112
720.8 2.989
721.0 2.721
721.2 2.907
721.4 2.523
721.6 2.771
721.8 2.912
722.0 2.558
722.2 2.743
722.4 2.381
722.6 2.376
722.8 2.523
723.0 2.598
723.2 2.667
723.4 2.733
723.6 2.873
723.8 2.824
724.0 2.714
724.2 2.350
724.4 2.448
724.6 3.063
724.8 2.691
725.0 2.606
725.2 2.368
725.4 2.676
725.6 3.049
725.8 2.949
726.0 2.742
726.2 2.828
726.4 2.580
726.6 2.719
726.8 2.673
727.0 2.633
727.2 2.166
727.4 2.306
727.6 2.254
727.8 1.887
728.0 1.843
728.2 1.955
728.4 1.896
728.6 1.585
728.8 1.911
729.0 1.850
729.2 1.963
729.4 1.880
729.6 1.847
729.8 1.827
730.0 1.576
730.2 1.289
730.4 1.655
730.6 1.603
730.8 2.021
731.0 1.826
731.2 1.939
731.4 1.898
731.6 1.723
731.8 1.628
732.0 1.651
732.2 1.793
732.4 1.828
732.6 2.016
732.8 1.803
733.0 1.708
733.2 1.754
733.4 1.953
733.6 1.778
733.8 1.590
734.0 1.433
734.2 1.415
734.4 1.199
734.6 1.212
734.8 1.220
735.0 1.392
735.2 1.356
735.4 1.202
735.6 1.344
735.8 1.402
736.0 1.374
736.2 1.664
736.4 1.593
736.6 1.601
736.8 1.189
737.0 1.148
737.2 1.174
737.4 1.686
737.6 1.334
737.8 1.308
738.0 1.308
738.2 1.023
738.4 1.184
738.6 1.550
738.8 1.776
739.0 1.605
739.2 1.486
739.4 1.579
739.6 1.481
739.8 1.499
740.0 1.295
740.2 1.345
740.4 1.314
740.6 1.182
740.8 1.269
741.0 1.333
741.2 1.149
741.4 1.029
741.6 0.947
741.8 1.032
742.0 1.124
742.2 1.100
742.4 1.192
742.6 1.120
742.8 1.270
743.0 1.026
743.2 1.213
743.4 1.132
743.6 1.201
743.8 1.476
744.0 1.362
744.2 1.560
744.4 1.351
744.6 1.039
744.8 0.967
745.0 1.056
745.2 1.089
745.4 0.978
745.6 1.333
745.8 1.421
746.0 1.234
746.2 1.012
746.4 0.738
746.6 0.693
746.8 0.415
747.0 0.594
747.2 0.447
747.4 0.846
747.6 0.840
747.8 0.916
748.0 0.979
748.2 0.845
748.4 0.906
748.6 0.884
748.8 0.869
749.0 0.721
749.2 0.911
749.4 1.090
749.6 1.168
749.8 1.063
750.0 0.866
750.2 0.841
750.4 0.745
750.6 0.955
750.8 0.834
751.0 0.864
751.2 0.799
751.4 1.282
751.6 1.058
751.8 0.872
752.0 0.626
752.2 0.722
752.4 1.113
752.6 1.234
752.8 0.964
753.0 1.144
753.2 0.813
753.4 0.968
753.6 1.258
753.8 0.869
754.0 0.727
754.2 0.508
754.4 0.648
754.6 0.790
754.8 0.654
755.0 0.518
755.2 0.762
755.4 0.677
755.6 0.564
755.8 0.611
756.0 0.675
756.2 0.750
756.4 0.586
756.6 0.752
756.8 0.945
757.0 0.670
757.2 0.646
757.4 0.731
757.6 0.612
757.8 0.743
758.0 0.815
758.2 0.835
758.4 0.929
758.6 0.890
758.8 0.954
759.0 0.709
759.2 0.467
759.4 0.472
759.6 0.489
759.8 0.545
760.0 0.593
760.2 0.563
760.4 0.547
760.6 0.486
760.8 0.568
761.0 0.661
761.2 0.734
761.4 0.655
761.6 0.772
761.8 0.769
762.0 0.751
762.2 0.622
762.4 0.726
762.6 0.663
762.8 0.587
763.0 0.586
763.2 0.747
763.4 0.702
763.6 0.911
763.8 0.762
764.0 0.549
764.2 0.519
764.4 0.460
764.6 0.328
764.8 0.455
765.0 0.521
765.2 0.395
765.4 0.401
765.6 0.302
765.8 0.305
766.0 0.155
766.2 0.130
766.4 0.248
766.6 0.391
766.8 0.419
767.0 0.546
767.2 0.628
767.4 0.850
767.6 0.667
767.8 0.628
768.0 0.713
768.2 0.697
768.4 0.628
768.6 0.759
768.8 0.693
769.0 0.794
769.2 0.538
769.4 0.241
769.6 0.358
769.8 0.353
770.0 0.345
770.2 0.339
770.4 0.270
770.6 0.331
770.8 0.334
771.0 0.301
771.2 0.245
771.4 0.356
771.6 0.395
771.8 0.357
772.0 0.376
772.2 0.423
772.4 0.473
772.6 0.353
772.8 0.491
773.0 0.380
773.2 0.273
773.4 0.263
773.6 0.333
773.8 0.219
774.0 0.362
774.2 0.365
774.4 0.183
774.6 0.385
774.8 0.468
775.0 0.338
775.2 0.257
775.4 0.195
775.6 0.206
775.8 0.204
776.0 0.247
776.2 0.383
776.4 0.251
776.6 0.250
776.8 0.436
777.0 0.504
777.2 0.511
777.4 0.516
777.6 0.526
777.8 0.638
778.0 0.554
778.2 0.523
778.4 0.366
778.6 0.380
778.8 0.748
779.0 0.587
779.2 0.610
779.4 0.375
779.6 0.370
779.8 0.464
780.0 0.436
780.2 0.250
780.4 0.490
780.6 0.351
780.8 0.482
781.0 0.494
781.2 0.443
781.4 0.316
781.6 0.331
781.8 0.242
782.0 0.422
782.2 0.451
782.4 0.323
782.6 0.246
782.8 0.395
783.0 0.316
783.2 0.154
783.4 0.182
783.6 0.388
783.8 0.260
784.0 0.320
784.2 0.374
784.4 0.375
784.6 0.282
784.8 0.284
785.0 0.591
785.2 0.686
785.4 0.462
785.6 0.464
785.8 0.310
786.0 0.124
786.2 0.128
786.4 0.113
786.6 0.036
786.8 0.138
787.0 0.192
787.2 0.179
787.4 0.089
787.6 0.092
787.8 0.132
788.0 0.104
788.2 0.176
788.4 0.176
788.6 0.164
788.8 0.159
789.0 0.166
789.2 0.084
789.4 0.184
789.6 0.230
789.8 0.126
790.0 0.208
790.2 0.063
790.4 0.160
790.6 0.115
790.8 0.118
791.0 0.107
791.2 0.270
791.4 0.141
791.6 0.029
791.8 0.033
792.0 0.030
792.2 0.033
792.4 0.054
792.6 0.278
792.8 0.275
793.0 0.308
793.2 0.249
793.4 0.414
793.6 0.515
793.8 0.575
794.0 0.485
794.2 0.307
794.4 0.258
794.6 0.171
794.8 0.170
795.0 0.100
795.2 0.229
795.4 0.256
795.6 0.356
795.8 0.201
796.0 0.130
796.2 0.021
796.4 -0.069
796.6 0.052
796.8 0.036
797.0 0.094
797.2 0.068
797.4 0.200
797.6 0.302
797.8 0.175
798.0 0.289
798.2 0.349
798.4 0.655
798.6 0.714
798.8 0.488
799.0 0.278
799.2 0.299
799.4 0.338
799.6 0.386
799.8 0.326
800.0 0.264
800.2 0.209
800.4 0.244
800.6 0.344
800.8 0.286
801.0 0.242
801.2 0.218
801.4 0.122
801.6 0.199
801.8 0.137
802.0 0.079
802.2 0.141
802.4 0.111
802.6 0.124
802.8 0.112
803.0 0.094
803.2 0.432
803.4 0.376
803.6 0.281
803.8 0.274
804.0 0.350
804.2 0.363
804.4 0.271
804.6 0.239
804.8 0.112
805.0 0.132
805.2 0.120
805.4 0.146
805.6 0.164
805.8 0.147
806.0 0.211
806.2 0.491
806.4 0.429
806.6 0.321
806.8 0.238
807.0 0.362
807.2 0.336
807.4 0.274
807.6 0.185
807.8 0.096
808.0 0.007
808.2 0.081
808.4 0.027
808.6 0.086
808.8 0.218
809.0 0.079
809.2 0.250
809.4 0.207
809.6 0.168
809.8 0.055
810.0 0.043
810.2 0.285
810.4 0.243
810.6 0.226
810.8 0.284
811.0 0.497
811.2 0.342
811.4 0.369
811.6 0.413
811.8 0.350
812.0 0.252
812.2 0.135
812.4 0.122
812.6 0.173
812.8 0.150
813.0 0.228
813.2 0.275
813.4 0.113
813.6 0.125
813.8 0.247
814.0 0.180
814.2 0.310
814.4 0.279
814.6 0.097
814.8 0.088
815.0 0.026
815.2 0.060
815.4 0.081
815.6 0.084
815.8 0.060
816.0 0.009
816.2 -0.074
816.4 0.061
816.6 0.116
816.8 0.101
817.0 0.099
817.2 0.276
817.4 0.194
817.6 0.375
817.8 0.295
818.0 0.252
818.2 0.198
818.4 0.196
818.6 0.110
818.8 0.296
819.0 0.157
819.2 0.316
819.4 0.220
819.6 0.222
819.8 0.308
820.0 0.388
820.2 0.329
820.4 0.219
820.6 0.275
820.8 0.264
821.0 0.235
821.2 0.253
821.4 0.280
821.6 0.273
821.8 0.163
822.0 0.415
822.2 0.427
822.4 0.249
822.6 0.318
822.8 0.209
823.0 0.279
823.2 0.270
823.4 0.337
823.6 0.312
823.8 0.195
824.0 0.164
824.2 0.160
824.4 0.186
824.6 0.198
824.8 0.133
825.0 0.065
825.2 0.141
825.4 0.083
825.6 0.058
825.8 0.067
826.0 0.305
826.2 0.221
826.4 0.139
826.6 0.177
826.8 0.315
827.0 0.139
827.2 0.198
827.4 0.157
827.6 0.332
827.8 0.168
828.0 0.132
828.2 0.122
828.4 0.008
828.6 -0.032
828.8 0.029
829.0 -0.025
829.2 0.038
829.4 0.115
829.6 0.498
829.8 0.300
830.0 0.211
830.2 0.170
830.4 0.137
830.6 0.078
830.8 -0.005
831.0 0.070
831.2 0.089
831.4 0.126
831.6 0.400
831.8 0.261
832.0 0.104
832.2 0.026
832.4 0.111
832.6 -0.013
832.8 0.019
833.0 0.010
833.2 0.098
833.4 -0.021
833.6 0.085
833.8 0.123
834.0 0.047
834.2 0.374
834.4 0.356
834.6 0.603
834.8 0.431
835.0 0.391
835.2 0.336
835.4 0.353
835.6 0.320
835.8 0.416
836.0 0.718
836.2 0.631
836.4 0.611
836.6 0.716
836.8 0.656
837.0 0.666
837.2 0.897
837.4 0.789
837.6 0.671
837.8 0.917
838.0 1.182
838.2 1.347
838.4 1.273
838.6 1.381
838.8 1.365
839.0 1.773
839.2 1.795
839.4 1.553
839.6 1.853
839.8 1.699
840.0 1.998
840.2 1.646
840.4 2.061
840.6 1.764
840.8 1.597
841.0 1.670
841.2 1.932
841.4 1.659
841.6 1.809
841.8 2.294
842.0 2.307
842.2 2.404
842.4 2.462
842.6 2.721
842.8 2.558
843.0 2.454
843.2 2.254
843.4 1.985
843.6 2.166
843.8 1.979
844.0 2.170
844.2 1.792
844.4 1.846
844.6 1.852
844.8 2.245
845.0 2.230
845.2 2.056
845.4 2.035
845.6 2.337
845.8 2.458
846.0 2.052
846.2 1.948
846.4 1.817
846.6 1.919
846.8 1.905
847.0 2.211
847.2 2.149
847.4 2.018
847.6 2.208
847.8 2.016
848.0 1.857
848.2 1.787
848.4 1.848
848.6 1.632
848.8 1.658
849.0 2.226
849.2 1.929
849.4 1.768
849.6 1.691
849.8 1.795
850.0 1.883
850.2 2.183
850.4 2.212
850.6 2.139
850.8 1.704
851.0 1.802
851.2 1.783
851.4 1.679
851.6 1.590
851.8 1.604
852.0 1.504
852.2 1.712
852.4 1.788
852.6 1.709
852.8 1.706
853.0 1.578
853.2 1.481
853.4 1.621
853.6 1.478
853.8 1.525
854.0 1.660
854.2 1.741
854.4 1.662
854.6 1.561
854.8 1.393
855.0 1.543
855.2 1.284
855.4 1.395
855.6 1.131
855.8 1.542
856.0 1.726
856.2 2.411
856.4 2.479
856.6 2.385
856.8 2.137
857.0 1.955
857.2 1.757
857.4 1.758
857.6 1.637
857.8 1.782
858.0 1.797
858.2 1.767
858.4 1.510
858.6 1.637
858.8 1.829
859.0 1.743
859.2 2.036
859.4 1.858
859.6 1.788
859.8 1.987
860.0 2.215
860.2 1.881
860.4 1.756
860.6 1.876
860.8 2.290
861.0 2.335
861.2 2.731
861.4 2.927
861.6 2.887
861.8 2.894
862.0 2.816
862.2 2.683
862.4 3.105
862.6 2.998
862.8 3.678
863.0 3.416
863.2 3.791
863.4 3.835
863.6 3.635
863.8 3.612
864.0 3.638
864.2 3.627
864.4 3.504
864.6 3.537
864.8 3.950
865.0 4.240
865.2 4.400
865.4 4.652
865.6 4.507
865.8 4.734
866.0 4.156
866.2 4.317
866.4 4.377
866.6 4.250
866.8 4.674
867.0 4.789
867.2 5.069
867.4 5.150
867.6 4.956
867.8 5.676
868.0 5.456
868.2 5.796
868.4 5.416
868.6 5.525
868.8 5.522
869.0 5.828
869.2 6.205
869.4 6.177
869.6 5.730
869.8 5.744
870.0 5.491
870.2 5.693
870.4 5.591
870.6 6.266
870.8 5.899
871.0 6.263
871.2 6.208
871.4 6.205
871.6 5.965
871.8 6.004
872.0 6.013
872.2 5.745
872.4 5.702
872.6 6.210
872.8 5.791
873.0 5.909
873.2 6.274
873.4 6.673
873.6 6.343
873.8 6.911
874.0 6.756
874.2 6.584
874.4 6.321
874.6 7.465
874.8 7.586
875.0 7.459
875.2 7.521
875.4 7.608
875.6 7.482
875.8 7.445
876.0 7.924
876.2 7.844
876.4 7.950
876.6 7.536
876.8 8.045
877.0 7.893
877.2 8.115
877.4 8.796
877.6 8.237
877.8 8.253
878.0 8.263
878.2 8.503
878.4 8.656
878.6 9.475
878.8 9.653
879.0 9.942
879.2 9.435
879.4 8.756
879.6 8.838
879.8 8.615
880.0 8.944
880.2 8.648
880.4 8.586
880.6 9.596
880.8 9.552
881.0 9.537
881.2 9.433
881.4 10.06
881.6 9.446
881.8 8.902
882.0 8.859
882.2 8.619
882.4 9.087
882.6 9.366
882.8 9.091
883.0 9.506
883.2 10.05
883.4 9.306
883.6 9.173
883.8 9.413
884.0 9.239
884.2 9.634
884.4 9.710
884.6 9.200
884.8 10.08
885.0 10.68
885.2 10.69
885.4 10.38
885.6 10.99
885.8 10.72
886.0 9.773
886.2 10.24
886.4 10.49
886.6 11.09
886.8 10.77
887.0 10.78
887.2 10.59
887.4 11.63
887.6 11.67
887.8 11.73
888.0 11.37
888.2 10.62
888.4 10.91
888.6 10.66
888.8 10.76
889.0 11.31
889.2 11.34
889.4 11.25
889.6 10.87
889.8 10.65
890.0 10.36
890.2 10.83
890.4 10.39
890.6 11.13
890.8 11.22
891.0 11.54
891.2 11.83
891.4 12.19
891.6 11.41
891.8 11.87
892.0 11.58
892.2 11.28
892.4 12.05
892.6 11.80
892.8 11.92
893.0 11.80
893.2 11.64
893.4 10.93
893.6 11.52
893.8 11.21
894.0 11.88
894.2 12.14
894.4 13.02
894.6 13.44
894.8 13.23
895.0 12.84
895.2 13.26
895.4 13.10
895.6 12.61
895.8 12.49
896.0 12.30
896.2 12.38
896.4 12.98
896.6 12.59
896.8 13.26
897.0 13.00
897.2 13.64
897.4 13.65
897.6 13.08
897.8 12.38
898.0 11.76
898.2 12.02
898.4 11.97
898.6 11.77
898.8 12.63
899.0 13.08
899.2 13.29
899.4 13.83
899.6 13.26
899.8 12.46
900.0 12.66
##END=
