##TITLE= em-se
##JCAMP-DX= 4.24
##DATA TYPE= FL SPECTRUM
##ORIGIN= 
##OWNER= Lenovo
##DATE= 15:51:18, 05/11/2026
##SAMPLE DESCRIPTION= 1
##SPECTROMETER/DATA SYSTEM= Hitachi Model F-4600 FL Spectrophotometer;
Serial Number: 2313-003;
ROM Version: 5J24000 01;
##INSTRUMENT PARAMETERS= Scan mode= Emission;
Data mode= Fluorescence;
EX WL= 260.0 nm;
Scan speed= 1200 nm/min;
Delay= 0.0 s;
EX Slit= 2.5 nm;
EM Slit= 5.0 nm;
PMT Voltage= 700 V;
Response= 0.1 s;
Corrected spectra= Off;
##DELTAX= 0.2
##XLABEL= nm
##YLABEL= Data
##XUNITS= NANOMETERS
##YUNITS= ARBITRARY UNITS
##XFACTOR= 1.0
##YFACTOR= 1.0
##FIRSTX= 200.0
##LASTX= 900.0
##NPOINTS= 3501
##XYDATA= (X++(Y..Y))
200.0 1.990
200.2 1.966
200.4 1.702
200.6 1.827
200.8 1.414
201.0 1.517
201.2 1.544
201.4 1.411
201.6 1.124
201.8 1.445
202.0 1.608
202.2 1.699
202.4 2.060
202.6 2.154
202.8 1.764
203.0 1.363
203.2 1.369
203.4 1.061
203.6 1.367
203.8 1.121
204.0 0.898
204.2 0.745
204.4 0.991
204.6 1.460
204.8 1.178
205.0 1.142
205.2 1.142
205.4 1.172
205.6 1.533
205.8 1.424
206.0 1.243
206.2 1.592
206.4 1.371
206.6 1.356
206.8 1.300
207.0 1.730
207.2 1.461
207.4 1.322
207.6 1.401
207.8 1.425
208.0 1.437
208.2 1.358
208.4 1.706
208.6 2.137
208.8 1.745
209.0 1.816
209.2 1.876
209.4 1.526
209.6 1.391
209.8 1.414
210.0 1.641
210.2 1.696
210.4 1.918
210.6 1.851
210.8 1.846
211.0 1.412
211.2 1.540
211.4 1.226
211.6 1.025
211.8 1.468
212.0 1.215
212.2 2.088
212.4 1.740
212.6 1.514
212.8 2.012
213.0 1.992
213.2 1.911
213.4 1.745
213.6 1.828
213.8 1.442
214.0 1.268
214.2 1.502
214.4 1.543
214.6 1.204
214.8 1.104
215.0 1.089
215.2 1.985
215.4 2.085
215.6 2.107
215.8 2.076
216.0 1.715
216.2 1.598
216.4 1.497
216.6 1.557
216.8 1.676
217.0 1.971
217.2 1.604
217.4 1.512
217.6 1.493
217.8 1.245
218.0 1.128
218.2 1.349
218.4 1.480
218.6 1.429
218.8 1.468
219.0 1.507
219.2 1.127
219.4 1.629
219.6 1.218
219.8 1.162
220.0 1.247
220.2 1.745
220.4 1.680
220.6 1.856
220.8 1.782
221.0 1.541
221.2 1.446
221.4 1.099
221.6 1.297
221.8 1.511
222.0 1.406
222.2 1.771
222.4 1.386
222.6 1.231
222.8 1.520
223.0 1.605
223.2 1.367
223.4 1.172
223.6 1.109
223.8 1.081
224.0 1.199
224.2 1.252
224.4 1.121
224.6 0.994
224.8 1.274
225.0 1.074
225.2 1.063
225.4 0.838
225.6 1.406
225.8 1.558
226.0 1.871
226.2 1.581
226.4 1.625
226.6 1.765
226.8 1.881
227.0 2.035
227.2 2.031
227.4 2.574
227.6 2.270
227.8 1.962
228.0 1.707
228.2 1.688
228.4 1.294
228.6 1.648
228.8 2.242
229.0 2.386
229.2 2.416
229.4 1.933
229.6 1.941
229.8 1.894
230.0 1.747
230.2 1.733
230.4 1.390
230.6 1.703
230.8 1.324
231.0 1.696
231.2 1.630
231.4 1.371
231.6 1.521
231.8 1.802
232.0 1.768
232.2 1.936
232.4 2.083
232.6 2.048
232.8 1.629
233.0 1.906
233.2 1.568
233.4 1.768
233.6 1.617
233.8 2.014
234.0 2.085
234.2 2.258
234.4 2.294
234.6 1.924
234.8 1.748
235.0 1.730
235.2 1.519
235.4 2.050
235.6 1.959
235.8 1.699
236.0 1.649
236.2 1.150
236.4 1.383
236.6 1.403
236.8 1.366
237.0 1.189
237.2 1.449
237.4 2.223
237.6 2.146
237.8 2.313
238.0 2.191
238.2 2.388
238.4 2.020
238.6 1.709
238.8 2.025
239.0 1.679
239.2 1.393
239.4 1.345
239.6 1.375
239.8 1.557
240.0 1.261
240.2 1.635
240.4 2.096
240.6 2.156
240.8 1.788
241.0 1.875
241.2 1.986
241.4 1.677
241.6 1.253
241.8 1.348
242.0 1.460
242.2 1.760
242.4 2.008
242.6 2.175
242.8 1.796
243.0 1.547
243.2 1.760
243.4 2.124
243.6 2.247
243.8 1.870
244.0 1.925
244.2 2.091
244.4 1.793
244.6 2.304
244.8 2.037
245.0 1.839
245.2 1.910
245.4 1.605
245.6 1.361
245.8 1.334
246.0 1.615
246.2 1.542
246.4 1.313
246.6 1.526
246.8 1.652
247.0 1.194
247.2 0.979
247.4 1.179
247.6 1.366
247.8 1.502
248.0 1.531
248.2 1.931
248.4 2.232
248.6 2.283
248.8 1.846
249.0 1.837
249.2 2.128
249.4 2.094
249.6 2.027
249.8 1.757
250.0 1.568
250.2 1.353
250.4 1.163
250.6 1.337
250.8 1.103
251.0 1.143
251.2 1.554
251.4 1.817
251.6 2.321
251.8 2.434
252.0 2.368
252.2 2.355
252.4 2.433
252.6 2.386
252.8 3.093
253.0 2.999
253.2 3.587
253.4 3.730
253.6 3.571
253.8 3.756
254.0 4.253
254.2 5.825
254.4 6.890
254.6 8.778
254.8 9.503
255.0 11.24
255.2 12.39
255.4 14.24
255.6 15.32
255.8 17.47
256.0 20.86
256.2 24.84
256.4 27.90
256.6 32.50
256.8 37.14
257.0 40.55
257.2 46.60
257.4 49.49
257.6 55.90
257.8 59.69
258.0 63.91
258.2 68.18
258.4 70.33
258.6 73.59
258.8 79.27
259.0 85.64
259.2 89.48
259.4 91.99
259.6 96.21
259.8 105.5
260.0 106.0
260.2 108.1
260.4 108.1
260.6 107.2
260.8 105.9
261.0 105.0
261.2 106.4
261.4 107.2
261.6 106.3
261.8 103.6
262.0 98.50
262.2 99.40
262.4 95.81
262.6 93.87
262.8 89.93
263.0 83.58
263.2 77.41
263.4 70.97
263.6 67.78
263.8 62.58
264.0 58.39
264.2 52.99
264.4 48.37
264.6 44.48
264.8 40.22
265.0 35.64
265.2 31.63
265.4 27.77
265.6 25.89
265.8 22.49
266.0 20.13
266.2 17.99
266.4 15.33
266.6 12.32
266.8 10.81
267.0 9.270
267.2 7.923
267.4 6.591
267.6 5.660
267.8 5.144
268.0 3.938
268.2 3.499
268.4 3.105
268.6 3.113
268.8 2.698
269.0 2.655
269.2 2.906
269.4 2.868
269.6 3.193
269.8 2.814
270.0 2.631
270.2 2.137
270.4 2.841
270.6 3.220
270.8 3.314
271.0 2.932
271.2 2.687
271.4 2.765
271.6 3.368
271.8 3.254
272.0 3.632
272.2 3.749
272.4 3.380
272.6 3.140
272.8 3.583
273.0 3.343
273.2 2.937
273.4 3.038
273.6 3.098
273.8 3.316
274.0 3.256
274.2 2.581
274.4 2.902
274.6 3.258
274.8 3.553
275.0 3.148
275.2 2.921
275.4 3.395
275.6 3.261
275.8 3.626
276.0 3.418
276.2 3.053
276.4 3.324
276.6 3.205
276.8 2.687
277.0 3.351
277.2 3.160
277.4 4.138
277.6 3.733
277.8 4.111
278.0 3.878
278.2 3.251
278.4 2.860
278.6 2.825
278.8 2.549
279.0 2.633
279.2 2.620
279.4 3.034
279.6 3.011
279.8 3.149
280.0 3.336
280.2 2.991
280.4 2.606
280.6 3.070
280.8 3.750
281.0 3.923
281.2 3.961
281.4 4.770
281.6 4.463
281.8 4.531
282.0 4.531
282.2 5.329
282.4 5.516
282.6 5.391
282.8 5.776
283.0 5.831
283.2 6.403
283.4 6.379
283.6 5.973
283.8 6.103
284.0 5.799
284.2 6.537
284.4 6.476
284.6 7.219
284.8 8.160
285.0 8.011
285.2 8.763
285.4 7.817
285.6 7.155
285.8 7.644
286.0 7.608
286.2 8.129
286.4 8.029
286.6 7.450
286.8 7.548
287.0 7.816
287.2 7.142
287.4 6.752
287.6 6.777
287.8 7.455
288.0 6.835
288.2 6.091
288.4 6.242
288.6 6.231
288.8 6.272
289.0 6.001
289.2 6.259
289.4 6.365
289.6 6.419
289.8 6.088
290.0 6.031
290.2 6.853
290.4 7.040
290.6 7.013
290.8 7.870
291.0 7.557
291.2 7.861
291.4 9.217
291.6 9.142
291.8 9.575
292.0 9.636
292.2 9.561
292.4 8.958
292.6 10.05
292.8 12.51
293.0 12.61
293.2 12.96
293.4 14.03
293.6 15.06
293.8 15.21
294.0 15.30
294.2 15.37
294.4 16.24
294.6 18.61
294.8 19.18
295.0 19.66
295.2 20.71
295.4 22.16
295.6 25.13
295.8 25.58
296.0 28.09
296.2 29.07
296.4 31.49
296.6 34.32
296.8 36.39
297.0 38.30
297.2 42.96
297.4 45.25
297.6 47.55
297.8 50.16
298.0 52.80
298.2 55.68
298.4 59.18
298.6 64.07
298.8 66.43
299.0 70.54
299.2 74.46
299.4 78.17
299.6 82.07
299.8 88.10
300.0 98.14
300.2 101.6
300.4 109.6
300.6 116.9
300.8 122.8
301.0 132.7
301.2 136.4
301.4 142.8
301.6 153.1
301.8 161.1
302.0 168.0
302.2 178.3
302.4 187.0
302.6 199.1
302.8 206.8
303.0 217.9
303.2 223.0
303.4 236.0
303.6 247.0
303.8 264.2
304.0 280.9
304.2 289.6
304.4 298.6
304.6 310.6
304.8 326.4
305.0 337.6
305.2 359.0
305.4 367.9
305.6 386.4
305.8 400.0
306.0 419.4
306.2 437.3
306.4 458.7
306.6 482.0
306.8 499.0
307.0 523.9
307.2 548.0
307.4 565.6
307.6 587.3
307.8 608.5
308.0 628.7
308.2 655.7
308.4 687.5
308.6 717.0
308.8 739.4
309.0 759.5
309.2 782.6
309.4 805.4
309.6 839.2
309.8 860.2
310.0 897.3
310.2 928.7
310.4 956.2
310.6 988.4
310.8  1021
311.0  1050
311.2  1083
311.4  1112
311.6  1149
311.8  1189
312.0  1223
312.2  1258
312.4  1301
312.6  1334
312.8  1361
313.0  1398
313.2  1448
313.4  1494
313.6  1524
313.8  1557
314.0  1589
314.2  1647
314.4  1695
314.6  1729
314.8  1780
315.0  1805
315.2  1858
315.4  1894
315.6  1935
315.8  2002
316.0  2064
316.2  2113
316.4  2165
316.6  2205
316.8  2242
317.0  2290
317.2  2343
317.4  2381
317.6  2428
317.8  2485
318.0  2537
318.2  2600
318.4  2642
318.6  2684
318.8  2728
319.0  2786
319.2  2863
319.4  2906
319.6  2967
319.8  3022
320.0  3060
320.2  3121
320.4  3167
320.6  3212
320.8  3276
321.0  3348
321.2  3420
321.4  3450
321.6  3518
321.8  3600
322.0  3643
322.2  3698
322.4  3768
322.6  3817
322.8  3884
323.0  3939
323.2  4010
323.4  4076
323.6  4120
323.8  4179
324.0  4243
324.2  4317
324.4  4379
324.6  4438
324.8  4512
325.0  4563
325.2  4628
325.4  4671
325.6  4724
325.8  4775
326.0  4844
326.2  4898
326.4  4970
326.6  5056
326.8  5135
327.0  5223
327.2  5255
327.4  5308
327.6  5369
327.8  5442
328.0  5493
328.2  5529
328.4  5584
328.6  5647
328.8  5685
329.0  5762
329.2  5852
329.4  5901
329.6  5995
329.8  6024
330.0  6072
330.2  6123
330.4  6162
330.6  6233
330.8  6298
331.0  6374
331.2  6390
331.4  6420
331.6  6493
331.8  6550
332.0  6642
332.2  6630
332.4  6671
332.6  6723
332.8  6787
333.0  6838
333.2  6892
333.4  6965
333.6  7018
333.8  7043
334.0  7105
334.2  7137
334.4  7235
334.6  7240
334.8  7310
335.0  7342
335.2  7399
335.4  7433
335.6  7444
335.8  7487
336.0  7547
336.2  7607
336.4  7627
336.6  7637
336.8  7698
337.0  7717
337.2  7734
337.4  7801
337.6  7837
337.8  7890
338.0  7941
338.2  7970
338.4  8024
338.6  8058
338.8  8091
339.0  8147
339.2  8161
339.4  8171
339.6  8194
339.8  8272
340.0  8296
340.2  8313
340.4  8357
340.6  8436
340.8  8460
341.0  8496
341.2  8508
341.4  8511
341.6  8519
341.8  8551
342.0  8555
342.2  8608
342.4  8613
342.6  8631
342.8  8618
343.0  8662
343.2  8709
343.4  8735
343.6  8743
343.8  8758
344.0  8747
344.2  8787
344.4  8815
344.6  8771
344.8  8775
345.0  8785
345.2  8860
345.4  8914
345.6  8914
345.8  8929
346.0  8928
346.2  8948
346.4  8910
346.6  8919
346.8  8955
347.0  8997
347.2  9004
347.4  9006
347.6  9041
347.8  9053
348.0  9071
348.2  9058
348.4  9081
348.6  9068
348.8  9052
349.0  9066
349.2  9093
349.4  9117
349.6  9120
349.8  9092
350.0  9110
350.2  9086
350.4  9086
350.6  9075
350.8  9130
351.0  9126
351.2  9118
351.4  9096
351.6  9120
351.8  9106
352.0  9059
352.2  9046
352.4  9055
352.6  9034
352.8  9062
353.0  9044
353.2  9074
353.4  9035
353.6  9029
353.8  9043
354.0  8998
354.2  8977
354.4  8973
354.6  8949
354.8  8987
355.0  8940
355.2  8944
355.4  8972
355.6  8970
355.8  8955
356.0  8967
356.2  8912
356.4  8880
356.6  8876
356.8  8855
357.0  8829
357.2  8816
357.4  8785
357.6  8756
357.8  8735
358.0  8717
358.2  8704
358.4  8671
358.6  8666
358.8  8591
359.0  8623
359.2  8626
359.4  8624
359.6  8562
359.8  8577
360.0  8569
360.2  8574
360.4  8559
360.6  8477
360.8  8403
361.0  8411
361.2  8382
361.4  8398
361.6  8365
361.8  8325
362.0  8285
362.2  8263
362.4  8224
362.6  8181
362.8  8130
363.0  8146
363.2  8078
363.4  8047
363.6  8050
363.8  8052
364.0  8012
364.2  7951
364.4  7892
364.6  7898
364.8  7853
365.0  7856
365.2  7830
365.4  7794
365.6  7785
365.8  7744
366.0  7719
366.2  7706
366.4  7691
366.6  7649
366.8  7606
367.0  7563
367.2  7513
367.4  7486
367.6  7468
367.8  7436
368.0  7394
368.2  7388
368.4  7382
368.6  7332
368.8  7277
369.0  7236
369.2  7193
369.4  7124
369.6  7101
369.8  7052
370.0  7023
370.2  6986
370.4  6984
370.6  6937
370.8  6931
371.0  6901
371.2  6884
371.4  6872
371.6  6819
371.8  6752
372.0  6749
372.2  6694
372.4  6673
372.6  6635
372.8  6601
373.0  6561
373.2  6532
373.4  6498
373.6  6468
373.8  6430
374.0  6394
374.2  6356
374.4  6346
374.6  6297
374.8  6259
375.0  6272
375.2  6234
375.4  6163
375.6  6143
375.8  6124
376.0  6088
376.2  6047
376.4  6018
376.6  5973
376.8  5922
377.0  5890
377.2  5835
377.4  5822
377.6  5774
377.8  5725
378.0  5704
378.2  5644
378.4  5624
378.6  5611
378.8  5573
379.0  5544
379.2  5548
379.4  5499
379.6  5483
379.8  5444
380.0  5408
380.2  5414
380.4  5346
380.6  5291
380.8  5246
381.0  5203
381.2  5173
381.4  5159
381.6  5111
381.8  5057
382.0  5038
382.2  5024
382.4  4987
382.6  4973
382.8  4938
383.0  4876
383.2  4841
383.4  4800
383.6  4780
383.8  4747
384.0  4708
384.2  4674
384.4  4639
384.6  4622
384.8  4593
385.0  4579
385.2  4549
385.4  4535
385.6  4503
385.8  4451
386.0  4433
386.2  4387
386.4  4363
386.6  4339
386.8  4295
387.0  4268
387.2  4244
387.4  4222
387.6  4170
387.8  4154
388.0  4150
388.2  4113
388.4  4056
388.6  4010
388.8  3995
389.0  3969
389.2  3977
389.4  3936
389.6  3906
389.8  3867
390.0  3875
390.2  3829
390.4  3790
390.6  3768
390.8  3729
391.0  3713
391.2  3697
391.4  3664
391.6  3642
391.8  3607
392.0  3573
392.2  3552
392.4  3536
392.6  3494
392.8  3466
393.0  3434
393.2  3406
393.4  3397
393.6  3389
393.8  3340
394.0  3332
394.2  3299
394.4  3279
394.6  3252
394.8  3225
395.0  3194
395.2  3179
395.4  3166
395.6  3157
395.8  3125
396.0  3088
396.2  3044
396.4  3019
396.6  2997
396.8  2973
397.0  2950
397.2  2939
397.4  2917
397.6  2888
397.8  2884
398.0  2860
398.2  2839
398.4  2820
398.6  2787
398.8  2764
399.0  2734
399.2  2720
399.4  2700
399.6  2680
399.8  2653
400.0  2638
400.2  2616
400.4  2580
400.6  2581
400.8  2553
401.0  2534
401.2  2526
401.4  2517
401.6  2484
401.8  2456
402.0  2435
402.2  2413
402.4  2390
402.6  2388
402.8  2337
403.0  2320
403.2  2304
403.4  2298
403.6  2273
403.8  2240
404.0  2225
404.2  2194
404.4  2188
404.6  2171
404.8  2150
405.0  2130
405.2  2115
405.4  2096
405.6  2086
405.8  2075
406.0  2053
406.2  2045
406.4  2015
406.6  2003
406.8  1987
407.0  1975
407.2  1960
407.4  1940
407.6  1938
407.8  1929
408.0  1906
408.2  1892
408.4  1868
408.6  1849
408.8  1838
409.0  1819
409.2  1811
409.4  1786
409.6  1771
409.8  1758
410.0  1746
410.2  1736
410.4  1719
410.6  1712
410.8  1690
411.0  1654
411.2  1654
411.4  1651
411.6  1642
411.8  1619
412.0  1604
412.2  1597
412.4  1589
412.6  1562
412.8  1545
413.0  1533
413.2  1531
413.4  1514
413.6  1497
413.8  1481
414.0  1482
414.2  1466
414.4  1451
414.6  1433
414.8  1428
415.0  1408
415.2  1395
415.4  1372
415.6  1367
415.8  1353
416.0  1349
416.2  1339
416.4  1335
416.6  1322
416.8  1310
417.0  1287
417.2  1262
417.4  1262
417.6  1253
417.8  1239
418.0  1226
418.2  1219
418.4  1205
418.6  1208
418.8  1190
419.0  1179
419.2  1163
419.4  1156
419.6  1138
419.8  1139
420.0  1121
420.2  1115
420.4  1104
420.6  1096
420.8  1086
421.0  1073
421.2  1062
421.4  1050
421.6  1041
421.8  1034
422.0  1029
422.2  1019
422.4  1012
422.6  1004
422.8 986.5
423.0 978.8
423.2 974.7
423.4 959.1
423.6 949.7
423.8 933.0
424.0 928.9
424.2 924.0
424.4 919.3
424.6 914.4
424.8 904.9
425.0 897.0
425.2 887.5
425.4 875.5
425.6 862.4
425.8 853.4
426.0 854.6
426.2 836.4
426.4 833.1
426.6 832.0
426.8 826.4
427.0 820.3
427.2 817.6
427.4 814.2
427.6 804.9
427.8 793.6
428.0 784.2
428.2 783.4
428.4 771.5
428.6 751.5
428.8 755.0
429.0 741.8
429.2 738.7
429.4 733.3
429.6 730.3
429.8 726.1
430.0 724.3
430.2 722.5
430.4 707.0
430.6 698.2
430.8 691.8
431.0 691.6
431.2 684.7
431.4 681.2
431.6 677.3
431.8 659.8
432.0 653.4
432.2 653.0
432.4 648.4
432.6 632.2
432.8 633.9
433.0 631.6
433.2 628.9
433.4 625.9
433.6 618.5
433.8 605.7
434.0 596.9
434.2 591.9
434.4 592.6
434.6 581.8
434.8 579.4
435.0 575.8
435.2 563.3
435.4 556.2
435.6 548.3
435.8 541.9
436.0 546.5
436.2 536.5
436.4 530.4
436.6 530.0
436.8 523.3
437.0 518.3
437.2 519.2
437.4 510.4
437.6 505.0
437.8 497.1
438.0 496.0
438.2 496.4
438.4 491.1
438.6 487.7
438.8 481.0
439.0 469.5
439.2 468.7
439.4 459.3
439.6 460.8
439.8 459.8
440.0 461.5
440.2 456.9
440.4 449.0
440.6 453.4
440.8 456.4
441.0 449.3
441.2 440.2
441.4 436.6
441.6 430.6
441.8 424.6
442.0 423.9
442.2 412.4
442.4 409.8
442.6 405.4
442.8 403.1
443.0 394.1
443.2 394.4
443.4 390.7
443.6 387.0
443.8 382.8
444.0 370.0
444.2 368.1
444.4 366.2
444.6 360.9
444.8 364.1
445.0 356.6
445.2 353.6
445.4 349.5
445.6 346.2
445.8 342.5
446.0 343.1
446.2 342.4
446.4 336.9
446.6 332.5
446.8 328.5
447.0 319.3
447.2 316.8
447.4 315.8
447.6 318.9
447.8 316.3
448.0 316.5
448.2 317.8
448.4 317.9
448.6 308.6
448.8 310.1
449.0 307.5
449.2 305.1
449.4 301.9
449.6 299.8
449.8 298.2
450.0 296.7
450.2 289.2
450.4 284.9
450.6 278.3
450.8 274.1
451.0 268.5
451.2 265.4
451.4 266.9
451.6 264.4
451.8 261.6
452.0 257.0
452.2 256.6
452.4 257.9
452.6 255.1
452.8 252.0
453.0 250.3
453.2 256.2
453.4 255.2
453.6 251.5
453.8 247.4
454.0 241.6
454.2 238.3
454.4 237.5
454.6 233.4
454.8 234.5
455.0 227.7
455.2 223.4
455.4 220.7
455.6 218.5
455.8 217.4
456.0 218.1
456.2 216.3
456.4 214.7
456.6 211.8
456.8 210.9
457.0 207.2
457.2 208.3
457.4 205.9
457.6 201.8
457.8 202.7
458.0 202.5
458.2 201.3
458.4 197.2
458.6 193.9
458.8 188.2
459.0 187.3
459.2 189.6
459.4 188.0
459.6 185.6
459.8 184.7
460.0 180.2
460.2 180.2
460.4 177.6
460.6 177.9
460.8 173.6
461.0 173.7
461.2 173.4
461.4 168.8
461.6 170.8
461.8 169.1
462.0 167.1
462.2 165.5
462.4 163.4
462.6 162.7
462.8 161.0
463.0 158.9
463.2 162.4
463.4 159.8
463.6 154.3
463.8 151.7
464.0 148.7
464.2 150.3
464.4 150.5
464.6 147.2
464.8 149.8
465.0 145.7
465.2 144.1
465.4 141.4
465.6 139.2
465.8 137.0
466.0 135.4
466.2 134.2
466.4 130.7
466.6 132.3
466.8 133.8
467.0 133.6
467.2 132.4
467.4 131.6
467.6 131.0
467.8 129.4
468.0 127.2
468.2 124.8
468.4 128.0
468.6 125.4
468.8 125.3
469.0 125.3
469.2 124.6
469.4 123.9
469.6 123.1
469.8 119.6
470.0 119.7
470.2 118.3
470.4 115.2
470.6 113.2
470.8 114.4
471.0 115.8
471.2 112.1
471.4 108.9
471.6 105.8
471.8 104.3
472.0 102.3
472.2 101.1
472.4 100.4
472.6 102.4
472.8 104.3
473.0 102.6
473.2 100.9
473.4 100.2
473.6 99.13
473.8 97.50
474.0 97.94
474.2 94.17
474.4 92.48
474.6 91.92
474.8 88.64
475.0 89.01
475.2 87.07
475.4 89.47
475.6 91.09
475.8 89.66
476.0 90.05
476.2 88.22
476.4 84.90
476.6 83.55
476.8 80.64
477.0 79.95
477.2 78.50
477.4 81.38
477.6 82.86
477.8 83.12
478.0 77.72
478.2 77.11
478.4 81.34
478.6 80.88
478.8 77.85
479.0 78.86
479.2 78.13
479.4 77.43
479.6 76.40
479.8 75.71
480.0 76.75
480.2 74.08
480.4 73.11
480.6 69.25
480.8 71.21
481.0 72.58
481.2 71.29
481.4 69.64
481.6 66.47
481.8 66.88
482.0 65.73
482.2 66.42
482.4 65.65
482.6 65.45
482.8 62.19
483.0 61.22
483.2 60.05
483.4 61.77
483.6 62.03
483.8 62.66
484.0 62.56
484.2 63.81
484.4 62.67
484.6 59.58
484.8 57.59
485.0 57.75
485.2 55.67
485.4 55.59
485.6 54.92
485.8 54.28
486.0 55.23
486.2 53.97
486.4 53.75
486.6 52.02
486.8 50.63
487.0 51.66
487.2 50.48
487.4 52.58
487.6 51.75
487.8 52.13
488.0 52.36
488.2 50.58
488.4 48.08
488.6 48.25
488.8 48.15
489.0 47.85
489.2 47.67
489.4 45.53
489.6 45.29
489.8 45.74
490.0 48.01
490.2 48.21
490.4 47.89
490.6 47.29
490.8 45.00
491.0 44.22
491.2 44.31
491.4 45.03
491.6 46.32
491.8 46.03
492.0 46.22
492.2 45.11
492.4 44.70
492.6 42.59
492.8 43.69
493.0 42.04
493.2 38.44
493.4 38.00
493.6 39.21
493.8 38.77
494.0 40.22
494.2 40.33
494.4 40.06
494.6 39.39
494.8 38.95
495.0 36.77
495.2 35.72
495.4 36.77
495.6 37.18
495.8 36.21
496.0 34.54
496.2 34.85
496.4 34.17
496.6 31.28
496.8 32.19
497.0 33.39
497.2 33.08
497.4 32.35
497.6 33.23
497.8 32.82
498.0 32.36
498.2 32.42
498.4 34.32
498.6 34.42
498.8 32.77
499.0 31.61
499.2 30.62
499.4 32.10
499.6 32.88
499.8 33.15
500.0 33.11
500.2 31.56
500.4 29.78
500.6 29.68
500.8 29.98
501.0 30.59
501.2 31.53
501.4 31.86
501.6 30.53
501.8 30.65
502.0 29.74
502.2 28.51
502.4 28.15
502.6 27.99
502.8 26.85
503.0 26.71
503.2 25.18
503.4 26.45
503.6 24.81
503.8 24.85
504.0 23.94
504.2 24.00
504.4 25.02
504.6 25.92
504.8 25.81
505.0 25.77
505.2 24.86
505.4 24.37
505.6 25.54
505.8 24.46
506.0 25.84
506.2 25.80
506.4 24.26
506.6 23.92
506.8 23.80
507.0 22.92
507.2 23.46
507.4 22.70
507.6 25.05
507.8 24.23
508.0 23.52
508.2 21.51
508.4 21.17
508.6 21.59
508.8 21.80
509.0 21.50
509.2 21.35
509.4 20.64
509.6 21.10
509.8 20.60
510.0 20.40
510.2 20.92
510.4 20.79
510.6 20.82
510.8 21.41
511.0 22.96
511.2 22.52
511.4 23.43
511.6 22.45
511.8 22.42
512.0 22.77
512.2 23.04
512.4 23.01
512.6 23.84
512.8 23.09
513.0 24.04
513.2 24.88
513.4 28.77
513.6 29.81
513.8 29.20
514.0 30.56
514.2 31.40
514.4 31.50
514.6 32.52
514.8 33.08
515.0 35.72
515.2 35.97
515.4 36.62
515.6 38.74
515.8 38.06
516.0 42.96
516.2 41.55
516.4 43.75
516.6 43.96
516.8 46.11
517.0 45.47
517.2 46.09
517.4 46.85
517.6 49.10
517.8 49.74
518.0 46.92
518.2 46.10
518.4 47.12
518.6 49.62
518.8 49.59
519.0 48.42
519.2 48.98
519.4 49.10
519.6 46.91
519.8 46.88
520.0 45.62
520.2 45.95
520.4 46.02
520.6 42.77
520.8 44.21
521.0 42.17
521.2 40.69
521.4 38.85
521.6 36.33
521.8 35.28
522.0 34.65
522.2 34.71
522.4 34.26
522.6 34.08
522.8 34.26
523.0 33.22
523.2 30.77
523.4 31.15
523.6 28.14
523.8 24.59
524.0 24.05
524.2 23.51
524.4 23.32
524.6 21.47
524.8 20.52
525.0 20.04
525.2 18.81
525.4 17.69
525.6 16.75
525.8 15.98
526.0 15.21
526.2 15.50
526.4 15.72
526.6 13.92
526.8 13.61
527.0 14.13
527.2 12.62
527.4 11.84
527.6 12.71
527.8 12.74
528.0 12.92
528.2 13.35
528.4 12.35
528.6 10.95
528.8 10.68
529.0 10.82
529.2 10.26
529.4 9.814
529.6 10.52
529.8 10.39
530.0 10.37
530.2 9.763
530.4 9.011
530.6 8.326
530.8 9.870
531.0 10.21
531.2 10.07
531.4 9.190
531.6 9.990
531.8 9.397
532.0 10.19
532.2 10.14
532.4 9.447
532.6 8.419
532.8 9.358
533.0 9.305
533.2 9.220
533.4 8.659
533.6 9.092
533.8 9.005
534.0 9.478
534.2 9.406
534.4 8.637
534.6 9.386
534.8 9.366
535.0 8.863
535.2 8.835
535.4 8.422
535.6 7.544
535.8 7.253
536.0 7.334
536.2 7.601
536.4 6.969
536.6 7.122
536.8 7.661
537.0 7.407
537.2 7.852
537.4 7.650
537.6 8.575
537.8 8.511
538.0 8.813
538.2 8.409
538.4 8.630
538.6 8.591
538.8 8.276
539.0 7.692
539.2 7.819
539.4 7.773
539.6 8.563
539.8 7.958
540.0 6.860
540.2 7.237
540.4 6.975
540.6 7.648
540.8 6.564
541.0 6.031
541.2 6.324
541.4 7.016
541.6 6.874
541.8 6.699
542.0 7.962
542.2 7.528
542.4 6.900
542.6 6.858
542.8 6.182
543.0 5.990
543.2 5.688
543.4 5.478
543.6 6.365
543.8 5.474
544.0 5.209
544.2 5.529
544.4 5.090
544.6 5.196
544.8 5.815
545.0 6.070
545.2 6.512
545.4 5.886
545.6 6.038
545.8 5.735
546.0 5.821
546.2 5.936
546.4 6.405
546.6 6.170
546.8 6.147
547.0 6.425
547.2 6.556
547.4 6.779
547.6 6.622
547.8 5.992
548.0 5.685
548.2 5.299
548.4 5.337
548.6 5.129
548.8 4.954
549.0 5.022
549.2 4.680
549.4 5.344
549.6 5.409
549.8 5.571
550.0 5.800
550.2 5.400
550.4 5.977
550.6 5.502
550.8 5.175
551.0 5.331
551.2 5.010
551.4 5.637
551.6 5.418
551.8 4.893
552.0 4.808
552.2 4.769
552.4 5.193
552.6 4.939
552.8 5.228
553.0 5.076
553.2 5.179
553.4 5.388
553.6 5.269
553.8 4.788
554.0 4.469
554.2 5.207
554.4 5.534
554.6 5.177
554.8 5.098
555.0 4.989
555.2 5.073
555.4 4.691
555.6 5.013
555.8 4.891
556.0 5.265
556.2 6.239
556.4 5.851
556.6 5.186
556.8 4.427
557.0 4.626
557.2 4.282
557.4 4.164
557.6 4.007
557.8 3.509
558.0 3.497
558.2 3.768
558.4 3.718
558.6 3.225
558.8 3.468
559.0 4.413
559.2 4.817
559.4 4.677
559.6 4.869
559.8 5.326
560.0 4.797
560.2 4.675
560.4 4.229
560.6 3.742
560.8 3.465
561.0 3.773
561.2 3.934
561.4 4.333
561.6 4.007
561.8 4.148
562.0 4.378
562.2 4.008
562.4 4.005
562.6 4.585
562.8 4.483
563.0 4.346
563.2 4.810
563.4 4.959
563.6 5.473
563.8 5.405
564.0 5.271
564.2 5.235
564.4 5.075
564.6 4.657
564.8 4.606
565.0 4.326
565.2 4.662
565.4 4.690
565.6 4.567
565.8 4.073
566.0 3.877
566.2 4.233
566.4 4.304
566.6 4.637
566.8 5.431
567.0 5.463
567.2 5.081
567.4 4.995
567.6 4.794
567.8 3.918
568.0 4.664
568.2 5.020
568.4 4.829
568.6 4.559
568.8 4.609
569.0 4.436
569.2 5.096
569.4 5.689
569.6 4.753
569.8 4.401
570.0 4.115
570.2 4.035
570.4 3.704
570.6 3.280
570.8 3.363
571.0 3.492
571.2 3.701
571.4 3.739
571.6 3.943
571.8 4.937
572.0 4.739
572.2 4.007
572.4 3.581
572.6 3.413
572.8 3.274
573.0 3.148
573.2 3.705
573.4 3.449
573.6 3.494
573.8 3.999
574.0 4.771
574.2 4.463
574.4 4.380
574.6 3.789
574.8 4.023
575.0 3.862
575.2 3.780
575.4 3.651
575.6 3.552
575.8 3.278
576.0 3.124
576.2 2.961
576.4 3.436
576.6 3.425
576.8 3.502
577.0 3.893
577.2 3.152
577.4 2.984
577.6 3.184
577.8 2.844
578.0 2.676
578.2 2.644
578.4 2.686
578.6 2.573
578.8 3.507
579.0 3.666
579.2 2.995
579.4 2.879
579.6 2.573
579.8 2.552
580.0 3.000
580.2 2.738
580.4 3.130
580.6 2.732
580.8 3.544
581.0 3.540
581.2 4.080
581.4 3.388
581.6 3.247
581.8 2.889
582.0 2.931
582.2 3.168
582.4 4.207
582.6 3.836
582.8 3.936
583.0 3.559
583.2 3.404
583.4 4.115
583.6 3.993
583.8 3.850
584.0 3.660
584.2 3.741
584.4 3.130
584.6 3.695
584.8 3.612
585.0 3.700
585.2 3.726
585.4 3.683
585.6 3.479
585.8 3.279
586.0 3.156
586.2 2.971
586.4 2.715
586.6 3.204
586.8 2.971
587.0 2.483
587.2 2.830
587.4 3.357
587.6 3.174
587.8 3.698
588.0 4.019
588.2 3.842
588.4 3.901
588.6 4.195
588.8 4.181
589.0 4.268
589.2 4.068
589.4 3.741
589.6 3.757
589.8 4.049
590.0 3.987
590.2 3.900
590.4 3.781
590.6 3.008
590.8 3.203
591.0 4.317
591.2 4.736
591.4 5.019
591.6 5.090
591.8 5.398
592.0 5.412
592.2 5.542
592.4 5.560
592.6 5.971
592.8 5.526
593.0 4.983
593.2 4.845
593.4 5.460
593.6 5.544
593.8 5.308
594.0 5.286
594.2 5.908
594.4 6.080
594.6 5.390
594.8 5.883
595.0 6.318
595.2 6.437
595.4 6.190
595.6 6.352
595.8 7.367
596.0 7.716
596.2 7.341
596.4 7.165
596.6 6.328
596.8 7.388
597.0 8.332
597.2 8.348
597.4 8.886
597.6 8.748
597.8 8.819
598.0 8.097
598.2 8.366
598.4 9.601
598.6 9.175
598.8 8.852
599.0 8.116
599.2 8.399
599.4 8.792
599.6 9.480
599.8 8.874
600.0 9.776
600.2 10.53
600.4 9.952
600.6 11.34
600.8 12.12
601.0 12.45
601.2 12.46
601.4 11.54
601.6 10.83
601.8 11.17
602.0 12.59
602.2 13.64
602.4 14.23
602.6 14.21
602.8 14.28
603.0 14.03
603.2 14.15
603.4 14.63
603.6 15.69
603.8 15.87
604.0 16.26
604.2 17.36
604.4 16.93
604.6 17.20
604.8 16.95
605.0 18.73
605.2 19.06
605.4 19.37
605.6 20.45
605.8 20.04
606.0 19.34
606.2 18.90
606.4 19.57
606.6 21.68
606.8 22.51
607.0 21.94
607.2 22.94
607.4 22.65
607.6 23.38
607.8 25.59
608.0 25.16
608.2 25.86
608.4 25.89
608.6 26.04
608.8 26.68
609.0 26.44
609.2 28.65
609.4 29.07
609.6 30.42
609.8 30.13
610.0 29.02
610.2 31.13
610.4 32.95
610.6 32.71
610.8 33.10
611.0 35.31
611.2 34.90
611.4 36.39
611.6 35.86
611.8 35.98
612.0 37.45
612.2 38.49
612.4 38.19
612.6 37.80
612.8 39.26
613.0 39.00
613.2 38.30
613.4 37.86
613.6 40.49
613.8 40.46
614.0 41.40
614.2 43.93
614.4 43.89
614.6 44.38
614.8 44.65
615.0 46.59
615.2 46.84
615.4 51.61
615.6 52.23
615.8 51.75
616.0 52.08
616.2 52.95
616.4 53.56
616.6 53.20
616.8 52.48
617.0 53.50
617.2 53.87
617.4 52.85
617.6 54.78
617.8 56.71
618.0 58.52
618.2 59.26
618.4 62.46
618.6 61.52
618.8 62.63
619.0 63.89
619.2 64.41
619.4 65.16
619.6 66.56
619.8 67.22
620.0 68.97
620.2 70.07
620.4 72.39
620.6 71.30
620.8 71.15
621.0 74.74
621.2 75.19
621.4 80.59
621.6 81.82
621.8 81.74
622.0 83.90
622.2 85.17
622.4 84.06
622.6 83.15
622.8 83.83
623.0 82.81
623.2 82.54
623.4 88.02
623.6 90.10
623.8 92.30
624.0 91.47
624.2 92.45
624.4 92.48
624.6 93.00
624.8 95.56
625.0 94.42
625.2 97.39
625.4 97.47
625.6 97.58
625.8 100.0
626.0 101.7
626.2 101.8
626.4 104.6
626.6 106.1
626.8 110.2
627.0 108.4
627.2 110.8
627.4 110.8
627.6 112.7
627.8 114.3
628.0 117.7
628.2 119.2
628.4 120.4
628.6 124.9
628.8 129.5
629.0 125.8
629.2 125.5
629.4 123.8
629.6 127.7
629.8 127.7
630.0 129.4
630.2 131.1
630.4 133.3
630.6 136.1
630.8 134.4
631.0 133.0
631.2 135.7
631.4 139.2
631.6 140.2
631.8 142.9
632.0 143.6
632.2 146.1
632.4 147.4
632.6 146.6
632.8 148.2
633.0 150.4
633.2 151.7
633.4 153.9
633.6 159.1
633.8 161.8
634.0 163.2
634.2 164.3
634.4 163.7
634.6 163.5
634.8 168.3
635.0 168.6
635.2 167.6
635.4 170.0
635.6 173.7
635.8 174.2
636.0 175.7
636.2 180.9
636.4 180.5
636.6 178.9
636.8 183.5
637.0 179.8
637.2 179.4
637.4 180.2
637.6 180.7
637.8 182.7
638.0 184.6
638.2 188.3
638.4 190.4
638.6 192.8
638.8 192.4
639.0 197.5
639.2 200.5
639.4 197.8
639.6 203.7
639.8 200.9
640.0 205.3
640.2 204.5
640.4 207.4
640.6 212.3
640.8 212.6
641.0 212.9
641.2 212.7
641.4 215.5
641.6 217.4
641.8 217.0
642.0 220.6
642.2 218.9
642.4 224.1
642.6 226.2
642.8 226.4
643.0 224.7
643.2 226.5
643.4 223.9
643.6 225.2
643.8 230.3
644.0 231.6
644.2 233.5
644.4 233.1
644.6 235.8
644.8 244.6
645.0 240.3
645.2 243.0
645.4 247.0
645.6 249.2
645.8 250.1
646.0 246.6
646.2 248.4
646.4 247.7
646.6 249.5
646.8 251.8
647.0 258.4
647.2 256.6
647.4 257.4
647.6 262.2
647.8 260.7
648.0 263.7
648.2 259.8
648.4 258.6
648.6 260.6
648.8 261.7
649.0 268.0
649.2 262.3
649.4 271.2
649.6 274.8
649.8 274.5
650.0 272.6
650.2 274.2
650.4 276.1
650.6 284.5
650.8 279.6
651.0 282.3
651.2 284.9
651.4 286.8
651.6 287.0
651.8 291.8
652.0 288.5
652.2 290.6
652.4 284.5
652.6 292.9
652.8 294.0
653.0 296.8
653.2 292.7
653.4 292.5
653.6 294.0
653.8 290.7
654.0 294.1
654.2 299.7
654.4 303.7
654.6 303.1
654.8 307.1
655.0 301.7
655.2 307.0
655.4 305.4
655.6 307.4
655.8 306.0
656.0 307.8
656.2 310.7
656.4 318.2
656.6 323.3
656.8 328.2
657.0 326.6
657.2 325.0
657.4 327.3
657.6 328.0
657.8 328.8
658.0 326.5
658.2 324.1
658.4 324.2
658.6 328.5
658.8 331.2
659.0 328.2
659.2 329.2
659.4 328.6
659.6 333.2
659.8 331.4
660.0 334.1
660.2 338.3
660.4 339.5
660.6 334.4
660.8 335.6
661.0 339.3
661.2 337.0
661.4 336.9
661.6 335.8
661.8 334.3
662.0 340.6
662.2 341.2
662.4 348.9
662.6 346.7
662.8 348.3
663.0 352.6
663.2 354.0
663.4 354.0
663.6 351.0
663.8 351.8
664.0 348.7
664.2 351.5
664.4 349.7
664.6 355.0
664.8 354.1
665.0 357.0
665.2 356.1
665.4 361.6
665.6 361.4
665.8 363.4
666.0 363.8
666.2 360.5
666.4 360.4
666.6 368.8
666.8 372.4
667.0 374.2
667.2 365.2
667.4 367.8
667.6 368.1
667.8 374.1
668.0 368.5
668.2 369.4
668.4 368.5
668.6 370.3
668.8 366.1
669.0 368.7
669.2 373.5
669.4 374.9
669.6 381.2
669.8 378.7
670.0 383.2
670.2 384.0
670.4 388.3
670.6 386.1
670.8 386.8
671.0 382.4
671.2 382.9
671.4 384.8
671.6 385.6
671.8 385.4
672.0 383.2
672.2 381.3
672.4 384.5
672.6 380.8
672.8 385.5
673.0 382.7
673.2 379.1
673.4 378.5
673.6 379.5
673.8 378.9
674.0 385.0
674.2 385.6
674.4 389.8
674.6 389.9
674.8 388.0
675.0 387.3
675.2 387.4
675.4 382.7
675.6 384.7
675.8 383.3
676.0 383.2
676.2 388.5
676.4 393.2
676.6 392.8
676.8 390.5
677.0 388.9
677.2 387.3
677.4 385.8
677.6 384.1
677.8 386.8
678.0 385.8
678.2 384.0
678.4 384.1
678.6 385.6
678.8 384.8
679.0 387.9
679.2 383.1
679.4 388.8
679.6 391.2
679.8 385.9
680.0 383.0
680.2 386.3
680.4 381.8
680.6 385.6
680.8 385.0
681.0 388.4
681.2 381.8
681.4 379.6
681.6 379.1
681.8 382.0
682.0 386.8
682.2 385.9
682.4 383.0
682.6 382.2
682.8 387.5
683.0 385.2
683.2 386.5
683.4 389.4
683.6 389.3
683.8 391.2
684.0 390.1
684.2 385.8
684.4 383.4
684.6 383.6
684.8 383.1
685.0 381.5
685.2 382.2
685.4 382.7
685.6 388.4
685.8 391.0
686.0 390.6
686.2 394.0
686.4 391.1
686.6 390.1
686.8 385.8
687.0 387.2
687.2 384.7
687.4 390.4
687.6 383.7
687.8 383.3
688.0 387.0
688.2 385.0
688.4 382.5
688.6 383.3
688.8 386.2
689.0 381.2
689.2 376.7
689.4 374.9
689.6 378.6
689.8 380.1
690.0 376.0
690.2 378.8
690.4 377.5
690.6 371.6
690.8 371.8
691.0 373.1
691.2 378.4
691.4 375.6
691.6 372.5
691.8 367.7
692.0 373.8
692.2 372.7
692.4 370.2
692.6 370.0
692.8 368.6
693.0 372.1
693.2 374.0
693.4 376.3
693.6 374.7
693.8 377.3
694.0 378.1
694.2 374.1
694.4 372.7
694.6 364.1
694.8 368.0
695.0 374.9
695.2 378.7
695.4 377.3
695.6 372.1
695.8 367.6
696.0 368.8
696.2 364.7
696.4 375.9
696.6 375.5
696.8 372.6
697.0 372.8
697.2 372.2
697.4 369.6
697.6 364.9
697.8 365.0
698.0 359.5
698.2 365.6
698.4 364.1
698.6 367.5
698.8 364.4
699.0 360.4
699.2 353.7
699.4 353.6
699.6 360.5
699.8 361.3
700.0 360.0
700.2 351.1
700.4 355.7
700.6 360.8
700.8 365.9
701.0 360.3
701.2 350.5
701.4 353.0
701.6 354.6
701.8 357.5
702.0 358.0
702.2 359.7
702.4 358.1
702.6 355.0
702.8 350.8
703.0 355.4
703.2 351.8
703.4 355.8
703.6 349.2
703.8 352.2
704.0 348.8
704.2 344.9
704.4 341.8
704.6 339.6
704.8 339.1
705.0 336.6
705.2 339.0
705.4 342.2
705.6 338.8
705.8 337.3
706.0 332.5
706.2 334.4
706.4 337.9
706.6 335.6
706.8 335.7
707.0 332.2
707.2 332.0
707.4 337.7
707.6 335.6
707.8 339.7
708.0 334.5
708.2 329.2
708.4 328.8
708.6 328.5
708.8 332.5
709.0 329.4
709.2 330.0
709.4 332.2
709.6 329.1
709.8 328.7
710.0 324.7
710.2 332.4
710.4 328.5
710.6 327.8
710.8 321.6
711.0 322.4
711.2 322.3
711.4 316.5
711.6 321.0
711.8 320.0
712.0 318.4
712.2 315.9
712.4 310.7
712.6 315.3
712.8 316.5
713.0 315.8
713.2 314.6
713.4 314.8
713.6 306.6
713.8 304.2
714.0 307.2
714.2 305.6
714.4 310.8
714.6 308.3
714.8 305.1
715.0 304.5
715.2 305.5
715.4 308.3
715.6 308.0
715.8 302.8
716.0 305.1
716.2 306.3
716.4 307.3
716.6 308.3
716.8 304.8
717.0 302.7
717.2 302.5
717.4 302.4
717.6 302.2
717.8 295.9
718.0 299.8
718.2 295.5
718.4 292.9
718.6 282.1
718.8 279.7
719.0 281.1
719.2 281.5
719.4 277.0
719.6 276.1
719.8 277.3
720.0 276.6
720.2 282.6
720.4 279.0
720.6 282.5
720.8 283.5
721.0 279.4
721.2 279.9
721.4 277.2
721.6 280.4
721.8 286.3
722.0 288.1
722.2 280.9
722.4 279.6
722.6 280.0
722.8 278.8
723.0 273.5
723.2 276.6
723.4 276.3
723.6 275.9
723.8 278.4
724.0 274.6
724.2 272.3
724.4 268.5
724.6 268.4
724.8 263.3
725.0 271.1
725.2 271.0
725.4 267.1
725.6 268.0
725.8 264.9
726.0 262.8
726.2 258.7
726.4 260.4
726.6 264.5
726.8 266.1
727.0 264.5
727.2 258.5
727.4 253.9
727.6 252.2
727.8 249.2
728.0 248.8
728.2 250.8
728.4 249.0
728.6 244.3
728.8 245.5
729.0 243.6
729.2 245.9
729.4 249.4
729.6 242.0
729.8 243.0
730.0 239.2
730.2 240.8
730.4 238.6
730.6 240.8
730.8 244.3
731.0 242.5
731.2 242.1
731.4 242.1
731.6 242.3
731.8 241.3
732.0 242.6
732.2 239.6
732.4 237.0
732.6 234.2
732.8 237.3
733.0 235.1
733.2 234.4
733.4 230.1
733.6 232.1
733.8 227.0
734.0 230.3
734.2 227.3
734.4 226.2
734.6 226.8
734.8 225.6
735.0 225.1
735.2 220.1
735.4 216.1
735.6 221.2
735.8 218.7
736.0 219.1
736.2 218.7
736.4 220.7
736.6 219.5
736.8 218.1
737.0 219.1
737.2 214.4
737.4 213.7
737.6 212.8
737.8 214.5
738.0 215.2
738.2 213.8
738.4 214.1
738.6 211.4
738.8 212.7
739.0 211.7
739.2 212.2
739.4 207.5
739.6 210.1
739.8 208.2
740.0 205.5
740.2 204.0
740.4 203.5
740.6 202.3
740.8 203.3
741.0 202.7
741.2 196.8
741.4 195.6
741.6 194.7
741.8 196.2
742.0 201.7
742.2 203.0
742.4 201.8
742.6 197.1
742.8 197.1
743.0 203.1
743.2 198.1
743.4 198.9
743.6 199.7
743.8 200.0
744.0 195.4
744.2 192.5
744.4 189.0
744.6 186.8
744.8 189.0
745.0 186.8
745.2 183.8
745.4 185.5
745.6 180.6
745.8 181.5
746.0 185.6
746.2 185.5
746.4 185.7
746.6 185.6
746.8 186.9
747.0 181.8
747.2 182.2
747.4 179.1
747.6 175.6
747.8 172.6
748.0 174.9
748.2 174.2
748.4 172.6
748.6 173.1
748.8 173.6
749.0 172.6
749.2 168.5
749.4 171.9
749.6 174.7
749.8 175.4
750.0 173.1
750.2 172.8
750.4 166.7
750.6 166.9
750.8 160.9
751.0 162.6
751.2 160.1
751.4 162.4
751.6 163.3
751.8 164.7
752.0 166.2
752.2 165.7
752.4 166.6
752.6 165.8
752.8 160.6
753.0 159.7
753.2 160.0
753.4 157.4
753.6 152.9
753.8 151.9
754.0 158.4
754.2 154.1
754.4 154.7
754.6 154.6
754.8 153.4
755.0 152.5
755.2 152.1
755.4 150.5
755.6 152.1
755.8 152.8
756.0 155.4
756.2 152.7
756.4 152.7
756.6 150.6
756.8 152.9
757.0 149.0
757.2 148.2
757.4 147.1
757.6 148.7
757.8 145.7
758.0 142.7
758.2 140.5
758.4 138.6
758.6 137.7
758.8 138.6
759.0 136.0
759.2 136.4
759.4 135.3
759.6 134.7
759.8 135.3
760.0 136.8
760.2 134.1
760.4 132.3
760.6 131.8
760.8 132.2
761.0 131.6
761.2 132.8
761.4 130.7
761.6 128.7
761.8 126.1
762.0 124.1
762.2 125.6
762.4 125.1
762.6 125.1
762.8 124.2
763.0 124.4
763.2 121.8
763.4 123.7
763.6 122.7
763.8 119.9
764.0 119.6
764.2 117.2
764.4 114.5
764.6 119.7
764.8 120.2
765.0 119.8
765.2 122.6
765.4 121.6
765.6 121.6
765.8 119.7
766.0 121.5
766.2 122.0
766.4 119.2
766.6 119.1
766.8 114.5
767.0 115.9
767.2 112.5
767.4 112.9
767.6 109.7
767.8 112.5
768.0 114.7
768.2 111.2
768.4 111.7
768.6 108.4
768.8 107.9
769.0 107.8
769.2 106.4
769.4 107.7
769.6 106.3
769.8 105.4
770.0 106.0
770.2 106.8
770.4 107.7
770.6 106.3
770.8 105.8
771.0 106.8
771.2 105.0
771.4 106.7
771.6 105.3
771.8 103.4
772.0 103.9
772.2 102.1
772.4 103.3
772.6 101.5
772.8 103.7
773.0 100.9
773.2 99.17
773.4 101.6
773.6 100.8
773.8 100.2
774.0 101.9
774.2 99.03
774.4 96.75
774.6 93.71
774.8 93.22
775.0 93.84
775.2 94.43
775.4 94.91
775.6 92.76
775.8 89.91
776.0 87.68
776.2 90.08
776.4 91.71
776.6 93.78
776.8 94.26
777.0 92.54
777.2 93.58
777.4 90.54
777.6 87.42
777.8 86.67
778.0 85.25
778.2 86.35
778.4 83.40
778.6 82.28
778.8 82.41
779.0 84.07
779.2 82.32
779.4 82.88
779.6 82.74
779.8 80.04
780.0 80.92
780.2 83.16
780.4 87.02
780.6 86.61
780.8 86.26
781.0 82.15
781.2 80.41
781.4 77.99
781.6 78.00
781.8 80.42
782.0 78.80
782.2 80.56
782.4 79.01
782.6 78.81
782.8 77.62
783.0 75.72
783.2 77.63
783.4 77.62
783.6 75.80
783.8 74.83
784.0 76.67
784.2 74.66
784.4 75.33
784.6 76.43
784.8 76.08
785.0 75.24
785.2 75.54
785.4 72.61
785.6 70.85
785.8 71.22
786.0 71.35
786.2 71.70
786.4 71.95
786.6 71.48
786.8 71.87
787.0 69.43
787.2 68.55
787.4 67.87
787.6 67.05
787.8 68.91
788.0 67.57
788.2 66.06
788.4 66.47
788.6 68.02
788.8 68.44
789.0 69.06
789.2 67.11
789.4 66.22
789.6 64.25
789.8 63.93
790.0 63.60
790.2 62.52
790.4 65.05
790.6 64.20
790.8 64.53
791.0 64.19
791.2 65.72
791.4 63.32
791.6 63.91
791.8 63.26
792.0 62.27
792.2 61.36
792.4 61.30
792.6 59.07
792.8 59.07
793.0 58.03
793.2 56.82
793.4 58.70
793.6 59.55
793.8 58.72
794.0 57.19
794.2 56.23
794.4 58.63
794.6 59.76
794.8 58.58
795.0 58.67
795.2 58.89
795.4 59.81
795.6 58.98
795.8 58.80
796.0 59.44
796.2 57.10
796.4 54.42
796.6 55.03
796.8 52.02
797.0 52.68
797.2 52.54
797.4 52.23
797.6 53.61
797.8 52.62
798.0 53.41
798.2 52.71
798.4 52.70
798.6 52.64
798.8 52.25
799.0 53.00
799.2 52.49
799.4 51.66
799.6 50.32
799.8 50.82
800.0 49.51
800.2 47.52
800.4 48.37
800.6 48.25
800.8 48.49
801.0 46.80
801.2 47.11
801.4 46.57
801.6 46.47
801.8 46.96
802.0 45.56
802.2 45.22
802.4 45.27
802.6 42.81
802.8 45.51
803.0 48.19
803.2 47.75
803.4 47.87
803.6 47.05
803.8 45.82
804.0 44.91
804.2 45.49
804.4 42.73
804.6 42.11
804.8 42.14
805.0 43.47
805.2 45.18
805.4 45.22
805.6 43.66
805.8 42.55
806.0 44.38
806.2 44.22
806.4 42.98
806.6 41.37
806.8 41.66
807.0 42.27
807.2 41.48
807.4 42.54
807.6 43.59
807.8 41.16
808.0 40.33
808.2 40.61
808.4 40.60
808.6 39.29
808.8 39.21
809.0 39.03
809.2 39.66
809.4 38.49
809.6 38.86
809.8 37.93
810.0 38.76
810.2 40.65
810.4 40.05
810.6 39.46
810.8 38.23
811.0 37.74
811.2 38.91
811.4 39.58
811.6 39.17
811.8 38.36
812.0 36.97
812.2 35.58
812.4 36.80
812.6 37.10
812.8 36.85
813.0 37.79
813.2 37.74
813.4 35.59
813.6 33.70
813.8 33.66
814.0 34.50
814.2 33.51
814.4 34.05
814.6 33.87
814.8 33.52
815.0 32.88
815.2 31.94
815.4 33.97
815.6 34.43
815.8 33.92
816.0 33.70
816.2 34.95
816.4 33.64
816.6 34.57
816.8 34.63
817.0 35.29
817.2 35.21
817.4 34.30
817.6 32.72
817.8 32.44
818.0 31.73
818.2 31.84
818.4 31.71
818.6 32.00
818.8 31.48
819.0 31.89
819.2 30.44
819.4 30.09
819.6 29.50
819.8 28.58
820.0 28.36
820.2 29.74
820.4 29.66
820.6 29.29
820.8 29.08
821.0 28.18
821.2 28.07
821.4 27.58
821.6 26.52
821.8 27.32
822.0 28.49
822.2 28.09
822.4 28.85
822.6 28.45
822.8 28.89
823.0 27.51
823.2 26.05
823.4 25.21
823.6 26.13
823.8 27.97
824.0 29.15
824.2 26.68
824.4 26.71
824.6 27.58
824.8 27.87
825.0 27.06
825.2 27.01
825.4 25.68
825.6 24.34
825.8 25.31
826.0 25.87
826.2 24.09
826.4 23.78
826.6 23.48
826.8 24.15
827.0 22.35
827.2 22.38
827.4 23.86
827.6 22.73
827.8 23.10
828.0 24.88
828.2 24.10
828.4 24.12
828.6 24.30
828.8 24.40
829.0 24.16
829.2 23.54
829.4 23.25
829.6 24.01
829.8 24.28
830.0 24.31
830.2 24.41
830.4 24.79
830.6 25.03
830.8 24.85
831.0 23.67
831.2 23.49
831.4 23.17
831.6 24.48
831.8 23.61
832.0 23.37
832.2 24.66
832.4 23.58
832.6 22.12
832.8 22.09
833.0 22.00
833.2 21.47
833.4 22.41
833.6 23.93
833.8 25.31
834.0 23.44
834.2 24.23
834.4 22.64
834.6 22.20
834.8 21.34
835.0 20.95
835.2 20.90
835.4 22.25
835.6 21.81
835.8 22.70
836.0 21.60
836.2 20.42
836.4 20.14
836.6 18.67
836.8 19.84
837.0 20.31
837.2 20.81
837.4 21.49
837.6 21.81
837.8 21.41
838.0 20.92
838.2 21.28
838.4 20.48
838.6 20.10
838.8 19.62
839.0 19.99
839.2 20.34
839.4 19.98
839.6 20.93
839.8 21.18
840.0 20.62
840.2 20.09
840.4 19.46
840.6 19.28
840.8 19.07
841.0 18.62
841.2 18.15
841.4 18.33
841.6 19.42
841.8 19.20
842.0 18.10
842.2 16.99
842.4 16.48
842.6 16.16
842.8 17.33
843.0 17.86
843.2 18.20
843.4 18.11
843.6 18.63
843.8 18.37
844.0 18.26
844.2 18.26
844.4 17.86
844.6 16.35
844.8 16.89
845.0 17.73
845.2 16.65
845.4 19.10
845.6 18.61
845.8 18.13
846.0 18.63
846.2 18.43
846.4 17.30
846.6 17.01
846.8 16.45
847.0 16.04
847.2 16.44
847.4 16.68
847.6 15.71
847.8 14.66
848.0 14.96
848.2 15.89
848.4 16.90
848.6 16.22
848.8 15.37
849.0 15.65
849.2 14.96
849.4 15.34
849.6 16.42
849.8 15.61
850.0 15.42
850.2 14.96
850.4 15.08
850.6 15.39
850.8 13.85
851.0 14.49
851.2 15.36
851.4 14.46
851.6 14.07
851.8 13.97
852.0 14.11
852.2 13.78
852.4 13.18
852.6 12.35
852.8 11.29
853.0 10.20
853.2 12.29
853.4 12.92
853.6 13.90
853.8 14.28
854.0 13.30
854.2 14.27
854.4 13.92
854.6 13.88
854.8 13.03
855.0 12.91
855.2 13.59
855.4 14.23
855.6 14.08
855.8 13.66
856.0 13.68
856.2 13.81
856.4 11.90
856.6 11.42
856.8 10.93
857.0 12.37
857.2 12.09
857.4 11.98
857.6 13.22
857.8 13.26
858.0 13.77
858.2 13.52
858.4 12.07
858.6 11.96
858.8 11.63
859.0 12.72
859.2 12.41
859.4 11.73
859.6 13.01
859.8 11.53
860.0 11.55
860.2 11.55
860.4 11.27
860.6 11.74
860.8 10.79
861.0 11.49
861.2 11.45
861.4 11.33
861.6 11.86
861.8 12.09
862.0 11.58
862.2 11.44
862.4 10.90
862.6 11.49
862.8 11.44
863.0 10.87
863.2 10.85
863.4 11.07
863.6 10.27
863.8 9.662
864.0 9.066
864.2 9.735
864.4 9.927
864.6 10.54
864.8 10.62
865.0 9.980
865.2 9.215
865.4 9.874
865.6 9.402
865.8 9.238
866.0 9.111
866.2 10.33
866.4 9.182
866.6 9.162
866.8 9.578
867.0 8.710
867.2 8.926
867.4 10.48
867.6 11.10
867.8 10.89
868.0 9.873
868.2 10.69
868.4 10.28
868.6 10.68
868.8 9.889
869.0 10.15
869.2 9.732
869.4 9.361
869.6 9.393
869.8 8.617
870.0 9.320
870.2 9.124
870.4 10.22
870.6 9.356
870.8 10.10
871.0 10.00
871.2 9.424
871.4 9.619
871.6 8.015
871.8 7.388
872.0 7.513
872.2 8.741
872.4 8.787
872.6 9.095
872.8 9.026
873.0 9.120
873.2 9.576
873.4 8.623
873.6 8.124
873.8 8.387
874.0 8.998
874.2 8.992
874.4 8.383
874.6 8.609
874.8 9.068
875.0 8.734
875.2 8.729
875.4 9.284
875.6 8.227
875.8 8.794
876.0 8.635
876.2 8.419
876.4 8.175
876.6 8.153
876.8 8.313
877.0 7.738
877.2 7.503
877.4 8.205
877.6 7.795
877.8 7.912
878.0 6.690
878.2 7.206
878.4 8.053
878.6 8.432
878.8 8.291
879.0 8.581
879.2 7.832
879.4 7.352
879.6 7.548
879.8 7.093
880.0 7.301
880.2 6.698
880.4 6.798
880.6 6.871
880.8 6.364
881.0 7.267
881.2 7.193
881.4 5.920
881.6 5.514
881.8 5.824
882.0 6.262
882.2 5.802
882.4 6.391
882.6 6.750
882.8 6.503
883.0 6.197
883.2 6.052
883.4 6.187
883.6 6.335
883.8 6.268
884.0 6.778
884.2 6.746
884.4 5.983
884.6 5.630
884.8 6.343
885.0 6.100
885.2 6.184
885.4 7.338
885.6 7.136
885.8 6.791
886.0 6.278
886.2 6.517
886.4 6.695
886.6 6.416
886.8 6.602
887.0 6.676
887.2 7.207
887.4 7.271
887.6 6.557
887.8 6.539
888.0 6.378
888.2 6.235
888.4 6.463
888.6 5.963
888.8 7.054
889.0 6.558
889.2 5.289
889.4 6.210
889.6 5.806
889.8 5.473
890.0 5.827
890.2 5.344
890.4 5.417
890.6 5.639
890.8 5.068
891.0 4.280
891.2 4.385
891.4 5.299
891.6 5.117
891.8 4.994
892.0 5.452
892.2 4.936
892.4 5.435
892.6 5.192
892.8 5.736
893.0 5.436
893.2 5.519
893.4 5.510
893.6 5.733
893.8 5.506
894.0 5.369
894.2 5.253
894.4 5.066
894.6 5.238
894.8 5.398
895.0 5.833
895.2 5.292
895.4 4.732
895.6 4.515
895.8 4.225
896.0 3.935
896.2 4.431
896.4 4.619
896.6 4.557
896.8 4.455
897.0 4.330
897.2 4.891
897.4 4.462
897.6 4.498
897.8 5.391
898.0 4.937
898.2 4.950
898.4 5.156
898.6 5.014
898.8 4.187
899.0 4.297
899.2 4.265
899.4 4.470
899.6 5.025
899.8 5.633
900.0 6.518
##END=
