##TITLE= ex-lao
##JCAMP-DX= 4.24
##DATA TYPE= FL SPECTRUM
##ORIGIN= 
##OWNER= Lenovo
##DATE= 15:38:55, 05/11/2026
##SAMPLE DESCRIPTION= 1
##SPECTROMETER/DATA SYSTEM= Hitachi Model F-4600 FL Spectrophotometer;
Serial Number: 2313-003;
ROM Version: 5J24000 01;
##INSTRUMENT PARAMETERS= Scan mode= Excitation;
Data mode= Fluorescence;
EM WL= 600.0 nm;
Scan speed= 1200 nm/min;
Delay= 0.0 s;
EX Slit= 5.0 nm;
EM Slit= 5.0 nm;
PMT Voltage= 700 V;
Response= 0.1 s;
Corrected spectra= Off;
##DELTAX= 0.2
##XLABEL= nm
##YLABEL= Data
##XUNITS= NANOMETERS
##YUNITS= ARBITRARY UNITS
##XFACTOR= 1.0
##YFACTOR= 1.0
##FIRSTX= 200.0
##LASTX= 900.0
##NPOINTS= 3501
##XYDATA= (X++(Y..Y))
200.0 384.8
200.2 380.2
200.4 388.1
200.6 382.4
200.8 377.9
201.0 375.2
201.2 401.5
201.4 427.7
201.6 433.6
201.8 461.2
202.0 491.3
202.2 499.9
202.4 524.1
202.6 549.4
202.8 606.1
203.0 606.9
203.2 628.6
203.4 676.6
203.6 698.7
203.8 678.7
204.0 689.5
204.2 735.7
204.4 760.4
204.6 764.7
204.8 772.8
205.0 771.4
205.2 798.1
205.4 833.8
205.6 917.3
205.8 928.3
206.0 908.3
206.2 893.8
206.4 933.8
206.6 976.2
206.8 994.4
207.0 997.0
207.2  1041
207.4  1060
207.6  1059
207.8  1082
208.0  1165
208.2  1145
208.4  1155
208.6  1118
208.8  1150
209.0  1221
209.2  1200
209.4  1161
209.6  1157
209.8  1211
210.0  1205
210.2  1262
210.4  1306
210.6  1302
210.8  1306
211.0  1313
211.2  1352
211.4  1330
211.6  1366
211.8  1388
212.0  1431
212.2  1464
212.4  1464
212.6  1474
212.8  1453
213.0  1439
213.2  1425
213.4  1482
213.6  1473
213.8  1484
214.0  1544
214.2  1617
214.4  1618
214.6  1640
214.8  1716
215.0  1674
215.2  1673
215.4  1665
215.6  1663
215.8  1668
216.0  1670
216.2  1700
216.4  1677
216.6  1676
216.8  1756
217.0  1733
217.2  1778
217.4  1788
217.6  1795
217.8  1829
218.0  1777
218.2  1840
218.4  1829
218.6  1862
218.8  1866
219.0  1992
219.2  1968
219.4  1911
219.6  1918
219.8  1888
220.0  1925
220.2  1884
220.4  1944
220.6  1979
220.8  1977
221.0  1972
221.2  1946
221.4  2009
221.6  2034
221.8  2054
222.0  2043
222.2  2063
222.4  2063
222.6  2110
222.8  2151
223.0  2178
223.2  2200
223.4  2154
223.6  2221
223.8  2202
224.0  2277
224.2  2245
224.4  2234
224.6  2267
224.8  2326
225.0  2273
225.2  2341
225.4  2380
225.6  2347
225.8  2427
226.0  2408
226.2  2386
226.4  2481
226.6  2526
226.8  2553
227.0  2554
227.2  2617
227.4  2634
227.6  2615
227.8  2631
228.0  2674
228.2  2612
228.4  2652
228.6  2681
228.8  2648
229.0  2643
229.2  2682
229.4  2645
229.6  2703
229.8  2660
230.0  2609
230.2  2609
230.4  2637
230.6  2555
230.8  2503
231.0  2506
231.2  2473
231.4  2440
231.6  2440
231.8  2415
232.0  2387
232.2  2315
232.4  2313
232.6  2275
232.8  2204
233.0  2151
233.2  2096
233.4  2067
233.6  2000
233.8  1949
234.0  1899
234.2  1839
234.4  1772
234.6  1735
234.8  1691
235.0  1654
235.2  1584
235.4  1551
235.6  1471
235.8  1425
236.0  1382
236.2  1338
236.4  1278
236.6  1248
236.8  1196
237.0  1143
237.2  1093
237.4  1038
237.6  1004
237.8 974.8
238.0 943.9
238.2 884.1
238.4 842.6
238.6 805.4
238.8 767.0
239.0 729.8
239.2 696.0
239.4 670.7
239.6 661.9
239.8 631.8
240.0 611.5
240.2 592.7
240.4 563.9
240.6 554.1
240.8 530.6
241.0 511.5
241.2 494.7
241.4 480.6
241.6 469.7
241.8 449.5
242.0 443.8
242.2 435.7
242.4 426.1
242.6 421.3
242.8 413.3
243.0 414.2
243.2 405.0
243.4 405.2
243.6 397.8
243.8 396.3
244.0 404.3
244.2 404.2
244.4 405.4
244.6 411.7
244.8 410.7
245.0 411.4
245.2 421.3
245.4 434.5
245.6 440.1
245.8 434.6
246.0 447.4
246.2 453.9
246.4 465.4
246.6 469.2
246.8 473.6
247.0 481.6
247.2 490.3
247.4 504.2
247.6 511.3
247.8 524.2
248.0 539.8
248.2 556.0
248.4 568.6
248.6 584.2
248.8 598.7
249.0 614.3
249.2 625.1
249.4 641.0
249.6 645.3
249.8 666.4
250.0 679.8
250.2 699.3
250.4 721.7
250.6 735.2
250.8 759.1
251.0 783.5
251.2 800.7
251.4 817.5
251.6 847.8
251.8 869.4
252.0 890.4
252.2 910.7
252.4 934.7
252.6 965.5
252.8 992.0
253.0  1020
253.2  1037
253.4  1072
253.6  1094
253.8  1126
254.0  1141
254.2  1171
254.4  1197
254.6  1230
254.8  1254
255.0  1284
255.2  1292
255.4  1323
255.6  1353
255.8  1394
256.0  1432
256.2  1451
256.4  1487
256.6  1519
256.8  1559
257.0  1609
257.2  1639
257.4  1671
257.6  1701
257.8  1747
258.0  1783
258.2  1817
258.4  1854
258.6  1888
258.8  1920
259.0  1966
259.2  2007
259.4  2056
259.6  2108
259.8  2150
260.0  2188
260.2  2242
260.4  2288
260.6  2332
260.8  2369
261.0  2408
261.2  2441
261.4  2499
261.6  2524
261.8  2575
262.0  2632
262.2  2669
262.4  2713
262.6  2755
262.8  2803
263.0  2848
263.2  2892
263.4  2937
263.6  2971
263.8  3026
264.0  3085
264.2  3158
264.4  3193
264.6  3233
264.8  3290
265.0  3352
265.2  3401
265.4  3460
265.6  3487
265.8  3556
266.0  3608
266.2  3664
266.4  3711
266.6  3748
266.8  3794
267.0  3843
267.2  3905
267.4  3938
267.6  3986
267.8  4047
268.0  4065
268.2  4117
268.4  4157
268.6  4208
268.8  4232
269.0  4278
269.2  4290
269.4  4329
269.6  4362
269.8  4398
270.0  4444
270.2  4487
270.4  4535
270.6  4587
270.8  4624
271.0  4650
271.2  4682
271.4  4726
271.6  4759
271.8  4796
272.0  4828
272.2  4870
272.4  4904
272.6  4916
272.8  4920
273.0  4938
273.2  4947
273.4  4986
273.6  5001
273.8  4989
274.0  4994
274.2  4991
274.4  4982
274.6  4983
274.8  4965
275.0  4950
275.2  4941
275.4  4909
275.6  4923
275.8  4905
276.0  4892
276.2  4887
276.4  4871
276.6  4851
276.8  4840
277.0  4832
277.2  4805
277.4  4792
277.6  4768
277.8  4752
278.0  4737
278.2  4694
278.4  4673
278.6  4644
278.8  4606
279.0  4595
279.2  4543
279.4  4507
279.6  4465
279.8  4424
280.0  4394
280.2  4327
280.4  4293
280.6  4240
280.8  4202
281.0  4148
281.2  4115
281.4  4044
281.6  3969
281.8  3903
282.0  3840
282.2  3771
282.4  3697
282.6  3628
282.8  3547
283.0  3455
283.2  3374
283.4  3294
283.6  3203
283.8  3101
284.0  3002
284.2  2926
284.4  2823
284.6  2729
284.8  2628
285.0  2526
285.2  2419
285.4  2316
285.6  2215
285.8  2122
286.0  2029
286.2  1940
286.4  1840
286.6  1739
286.8  1647
287.0  1556
287.2  1469
287.4  1389
287.6  1309
287.8  1234
288.0  1155
288.2  1072
288.4 999.9
288.6 928.1
288.8 866.4
289.0 807.0
289.2 754.6
289.4 694.8
289.6 646.5
289.8 593.1
290.0 544.0
290.2 502.3
290.4 462.5
290.6 426.7
290.8 396.8
291.0 367.3
291.2 342.2
291.4 311.5
291.6 286.9
291.8 263.9
292.0 240.9
292.2 223.2
292.4 206.0
292.6 186.4
292.8 171.0
293.0 156.5
293.2 145.3
293.4 136.0
293.6 127.1
293.8 119.4
294.0 112.3
294.2 108.3
294.4 106.6
294.6 103.1
294.8 102.3
295.0 103.7
295.2 105.9
295.4 108.5
295.6 113.4
295.8 120.3
296.0 125.3
296.2 135.1
296.4 146.6
296.6 154.4
296.8 163.7
297.0 172.1
297.2 182.8
297.4 190.4
297.6 201.5
297.8 210.1
298.0 220.4
298.2 227.0
298.4 234.6
298.6 240.3
298.8 244.6
299.0 247.6
299.2 248.8
299.4 249.5
299.6 251.3
299.8 251.3
300.0 246.9
300.2 243.2
300.4 239.6
300.6 233.3
300.8 223.9
301.0 217.0
301.2 206.2
301.4 194.8
301.6 183.0
301.8 172.1
302.0 162.1
302.2 151.2
302.4 140.5
302.6 130.6
302.8 118.3
303.0 106.2
303.2 97.78
303.4 87.80
303.6 77.65
303.8 68.40
304.0 61.80
304.2 53.56
304.4 46.27
304.6 40.45
304.8 34.35
305.0 29.39
305.2 24.69
305.4 21.20
305.6 17.70
305.8 14.59
306.0 11.98
306.2 9.900
306.4 7.875
306.6 6.595
306.8 5.424
307.0 4.655
307.2 3.735
307.4 3.144
307.6 2.654
307.8 2.431
308.0 2.235
308.2 1.992
308.4 1.758
308.6 1.841
308.8 1.815
309.0 1.804
309.2 1.684
309.4 1.684
309.6 1.663
309.8 1.584
310.0 1.567
310.2 1.528
310.4 1.557
310.6 1.436
310.8 1.394
311.0 1.283
311.2 1.184
311.4 1.439
311.6 1.403
311.8 1.653
312.0 1.697
312.2 1.653
312.4 1.627
312.6 1.357
312.8 1.362
313.0 1.317
313.2 1.181
313.4 1.111
313.6 1.374
313.8 1.247
314.0 1.354
314.2 1.388
314.4 1.392
314.6 1.304
314.8 1.229
315.0 1.271
315.2 1.379
315.4 1.349
315.6 1.384
315.8 1.354
316.0 1.362
316.2 1.280
316.4 1.129
316.6 1.196
316.8 1.140
317.0 1.038
317.2 1.141
317.4 1.338
317.6 1.268
317.8 1.073
318.0 1.001
318.2 0.842
318.4 0.861
318.6 0.819
318.8 0.830
319.0 0.920
319.2 1.020
319.4 1.013
319.6 1.089
319.8 0.986
320.0 0.972
320.2 0.855
320.4 0.862
320.6 0.865
320.8 0.782
321.0 0.774
321.2 0.910
321.4 0.939
321.6 0.902
321.8 0.810
322.0 0.883
322.2 0.929
322.4 0.983
322.6 1.084
322.8 1.178
323.0 1.153
323.2 1.092
323.4 0.943
323.6 1.107
323.8 1.058
324.0 0.992
324.2 0.870
324.4 0.820
324.6 0.890
324.8 0.833
325.0 0.893
325.2 0.845
325.4 0.732
325.6 0.671
325.8 0.749
326.0 0.835
326.2 0.797
326.4 0.693
326.6 0.759
326.8 0.747
327.0 0.720
327.2 0.954
327.4 0.832
327.6 0.799
327.8 0.772
328.0 0.674
328.2 0.840
328.4 0.907
328.6 1.016
328.8 0.991
329.0 0.938
329.2 0.937
329.4 0.859
329.6 0.815
329.8 0.882
330.0 0.756
330.2 0.795
330.4 0.856
330.6 0.809
330.8 0.692
331.0 0.794
331.2 0.794
331.4 0.857
331.6 0.864
331.8 0.853
332.0 0.774
332.2 0.754
332.4 0.911
332.6 0.863
332.8 0.868
333.0 0.803
333.2 0.855
333.4 0.758
333.6 0.873
333.8 0.854
334.0 0.778
334.2 0.737
334.4 0.694
334.6 0.667
334.8 0.621
335.0 0.602
335.2 0.699
335.4 0.695
335.6 0.782
335.8 0.665
336.0 0.637
336.2 0.714
336.4 0.715
336.6 0.764
336.8 0.763
337.0 0.750
337.2 0.799
337.4 0.719
337.6 0.719
337.8 0.909
338.0 1.030
338.2 0.978
338.4 0.848
338.6 0.900
338.8 0.757
339.0 0.710
339.2 0.709
339.4 0.605
339.6 0.653
339.8 0.610
340.0 0.674
340.2 0.674
340.4 0.599
340.6 0.523
340.8 0.437
341.0 0.582
341.2 0.580
341.4 0.698
341.6 0.672
341.8 0.754
342.0 0.762
342.2 0.802
342.4 0.798
342.6 0.794
342.8 0.783
343.0 0.736
343.2 0.778
343.4 0.761
343.6 0.755
343.8 0.705
344.0 0.646
344.2 0.593
344.4 0.512
344.6 0.570
344.8 0.598
345.0 0.679
345.2 0.615
345.4 0.577
345.6 0.762
345.8 0.680
346.0 0.608
346.2 0.597
346.4 0.602
346.6 0.685
346.8 0.707
347.0 0.574
347.2 0.509
347.4 0.666
347.6 0.575
347.8 0.564
348.0 0.601
348.2 0.567
348.4 0.616
348.6 0.547
348.8 0.486
349.0 0.606
349.2 0.711
349.4 0.717
349.6 0.693
349.8 0.679
350.0 0.725
350.2 0.603
350.4 0.681
350.6 0.825
350.8 0.718
351.0 0.651
351.2 0.623
351.4 0.522
351.6 0.710
351.8 0.632
352.0 0.566
352.2 0.535
352.4 0.578
352.6 0.519
352.8 0.571
353.0 0.579
353.2 0.749
353.4 0.638
353.6 0.538
353.8 0.665
354.0 0.655
354.2 0.574
354.4 0.717
354.6 0.637
354.8 0.696
355.0 0.675
355.2 0.605
355.4 0.554
355.6 0.478
355.8 0.451
356.0 0.470
356.2 0.460
356.4 0.453
356.6 0.458
356.8 0.442
357.0 0.459
357.2 0.564
357.4 0.540
357.6 0.460
357.8 0.473
358.0 0.516
358.2 0.409
358.4 0.578
358.6 0.565
358.8 0.634
359.0 0.614
359.2 0.542
359.4 0.485
359.6 0.431
359.8 0.457
360.0 0.452
360.2 0.584
360.4 0.574
360.6 0.592
360.8 0.708
361.0 0.628
361.2 0.634
361.4 0.647
361.6 0.724
361.8 0.667
362.0 0.632
362.2 0.671
362.4 0.607
362.6 0.551
362.8 0.522
363.0 0.583
363.2 0.709
363.4 0.684
363.6 0.644
363.8 0.678
364.0 0.555
364.2 0.557
364.4 0.476
364.6 0.505
364.8 0.485
365.0 0.412
365.2 0.469
365.4 0.589
365.6 0.547
365.8 0.494
366.0 0.465
366.2 0.529
366.4 0.481
366.6 0.496
366.8 0.602
367.0 0.544
367.2 0.587
367.4 0.562
367.6 0.537
367.8 0.499
368.0 0.565
368.2 0.462
368.4 0.444
368.6 0.441
368.8 0.438
369.0 0.473
369.2 0.490
369.4 0.564
369.6 0.616
369.8 0.549
370.0 0.483
370.2 0.584
370.4 0.513
370.6 0.545
370.8 0.469
371.0 0.439
371.2 0.440
371.4 0.542
371.6 0.418
371.8 0.510
372.0 0.508
372.2 0.509
372.4 0.501
372.6 0.491
372.8 0.450
373.0 0.444
373.2 0.474
373.4 0.540
373.6 0.513
373.8 0.424
374.0 0.436
374.2 0.514
374.4 0.558
374.6 0.554
374.8 0.551
375.0 0.494
375.2 0.469
375.4 0.542
375.6 0.618
375.8 0.535
376.0 0.612
376.2 0.638
376.4 0.601
376.6 0.637
376.8 0.633
377.0 0.565
377.2 0.529
377.4 0.683
377.6 0.675
377.8 0.617
378.0 0.563
378.2 0.536
378.4 0.502
378.6 0.535
378.8 0.542
379.0 0.574
379.2 0.610
379.4 0.573
379.6 0.554
379.8 0.559
380.0 0.528
380.2 0.579
380.4 0.545
380.6 0.563
380.8 0.630
381.0 0.710
381.2 0.625
381.4 0.672
381.6 0.609
381.8 0.613
382.0 0.548
382.2 0.520
382.4 0.513
382.6 0.626
382.8 0.586
383.0 0.587
383.2 0.581
383.4 0.537
383.6 0.535
383.8 0.493
384.0 0.519
384.2 0.522
384.4 0.455
384.6 0.544
384.8 0.622
385.0 0.523
385.2 0.474
385.4 0.427
385.6 0.458
385.8 0.535
386.0 0.510
386.2 0.476
386.4 0.502
386.6 0.583
386.8 0.602
387.0 0.593
387.2 0.639
387.4 0.614
387.6 0.678
387.8 0.610
388.0 0.575
388.2 0.506
388.4 0.416
388.6 0.546
388.8 0.484
389.0 0.501
389.2 0.575
389.4 0.574
389.6 0.554
389.8 0.593
390.0 0.566
390.2 0.646
390.4 0.657
390.6 0.630
390.8 0.551
391.0 0.534
391.2 0.536
391.4 0.566
391.6 0.568
391.8 0.537
392.0 0.669
392.2 0.653
392.4 0.650
392.6 0.565
392.8 0.662
393.0 0.612
393.2 0.612
393.4 0.613
393.6 0.722
393.8 0.634
394.0 0.693
394.2 0.678
394.4 0.618
394.6 0.596
394.8 0.588
395.0 0.538
395.2 0.695
395.4 0.727
395.6 0.697
395.8 0.669
396.0 0.607
396.2 0.676
396.4 0.730
396.6 0.764
396.8 0.809
397.0 0.774
397.2 0.667
397.4 0.689
397.6 0.720
397.8 0.678
398.0 0.808
398.2 0.853
398.4 0.800
398.6 0.944
398.8 1.072
399.0 1.023
399.2 1.047
399.4 1.070
399.6 0.978
399.8 0.948
400.0 0.955
400.2 1.059
400.4 1.044
400.6 1.104
400.8 1.104
401.0 0.989
401.2 1.144
401.4 1.093
401.6 1.055
401.8 1.095
402.0 1.164
402.2 1.277
402.4 1.367
402.6 1.290
402.8 1.273
403.0 1.510
403.2 1.556
403.4 1.450
403.6 1.438
403.8 1.561
404.0 1.516
404.2 1.472
404.4 1.547
404.6 1.581
404.8 1.675
405.0 1.625
405.2 1.742
405.4 1.891
405.6 1.733
405.8 1.804
406.0 1.751
406.2 1.743
406.4 1.665
406.6 1.634
406.8 1.742
407.0 1.913
407.2 1.702
407.4 1.733
407.6 1.785
407.8 1.830
408.0 1.763
408.2 1.690
408.4 1.840
408.6 1.792
408.8 1.726
409.0 1.729
409.2 1.856
409.4 1.803
409.6 1.908
409.8 1.904
410.0 1.793
410.2 1.807
410.4 1.832
410.6 1.882
410.8 2.010
411.0 2.103
411.2 2.088
411.4 2.026
411.6 2.016
411.8 2.088
412.0 2.244
412.2 2.219
412.4 2.234
412.6 2.339
412.8 2.263
413.0 2.194
413.2 2.279
413.4 2.281
413.6 2.223
413.8 2.235
414.0 2.254
414.2 2.291
414.4 2.305
414.6 2.418
414.8 2.383
415.0 2.332
415.2 2.362
415.4 2.474
415.6 2.503
415.8 2.362
416.0 2.347
416.2 2.240
416.4 2.501
416.6 2.422
416.8 2.431
417.0 2.429
417.2 2.382
417.4 2.292
417.6 2.312
417.8 2.186
418.0 2.126
418.2 2.181
418.4 2.336
418.6 2.291
418.8 2.379
419.0 2.367
419.2 2.341
419.4 2.431
419.6 2.322
419.8 2.226
420.0 2.308
420.2 2.197
420.4 2.327
420.6 2.394
420.8 2.472
421.0 2.467
421.2 2.485
421.4 2.519
421.6 2.487
421.8 2.544
422.0 2.526
422.2 2.571
422.4 2.630
422.6 2.821
422.8 2.803
423.0 2.704
423.2 2.731
423.4 2.646
423.6 2.686
423.8 2.721
424.0 2.768
424.2 2.729
424.4 2.714
424.6 2.785
424.8 2.731
425.0 2.819
425.2 2.628
425.4 2.783
425.6 2.739
425.8 2.727
426.0 2.674
426.2 2.789
426.4 2.775
426.6 2.713
426.8 2.713
427.0 2.749
427.2 2.750
427.4 2.631
427.6 2.875
427.8 2.806
428.0 2.927
428.2 2.970
428.4 3.088
428.6 3.152
428.8 3.087
429.0 3.133
429.2 3.323
429.4 3.328
429.6 3.460
429.8 3.322
430.0 3.379
430.2 3.424
430.4 3.400
430.6 3.305
430.8 3.391
431.0 3.478
431.2 3.549
431.4 3.424
431.6 3.154
431.8 3.112
432.0 3.362
432.2 3.269
432.4 3.266
432.6 3.468
432.8 3.645
433.0 3.684
433.2 3.776
433.4 3.869
433.6 3.791
433.8 3.913
434.0 3.683
434.2 3.629
434.4 3.683
434.6 3.468
434.8 3.531
435.0 3.522
435.2 3.604
435.4 3.765
435.6 4.026
435.8 3.934
436.0 3.894
436.2 3.797
436.4 3.899
436.6 3.708
436.8 3.670
437.0 3.749
437.2 3.959
437.4 3.945
437.6 4.033
437.8 4.110
438.0 4.031
438.2 4.193
438.4 3.996
438.6 4.058
438.8 4.166
439.0 4.018
439.2 4.046
439.4 3.928
439.6 4.027
439.8 4.036
440.0 4.272
440.2 4.256
440.4 3.986
440.6 4.049
440.8 4.176
441.0 4.052
441.2 4.176
441.4 4.340
441.6 4.432
441.8 4.382
442.0 4.269
442.2 4.230
442.4 4.085
442.6 4.423
442.8 4.648
443.0 4.883
443.2 4.912
443.4 4.807
443.6 4.868
443.8 4.938
444.0 4.844
444.2 4.855
444.4 4.911
444.6 4.928
444.8 4.862
445.0 4.901
445.2 5.016
445.4 5.163
445.6 4.995
445.8 5.045
446.0 4.981
446.2 5.206
446.4 5.230
446.6 5.283
446.8 5.292
447.0 5.283
447.2 5.290
447.4 5.347
447.6 5.373
447.8 5.617
448.0 5.600
448.2 5.440
448.4 5.580
448.6 5.681
448.8 5.658
449.0 5.557
449.2 5.768
449.4 5.728
449.6 5.796
449.8 5.813
450.0 6.021
450.2 5.865
450.4 5.911
450.6 6.163
450.8 6.183
451.0 6.240
451.2 6.164
451.4 6.306
451.6 6.188
451.8 6.360
452.0 6.561
452.2 6.677
452.4 6.549
452.6 6.767
452.8 6.839
453.0 6.650
453.2 6.766
453.4 6.754
453.6 6.875
453.8 6.915
454.0 7.089
454.2 7.378
454.4 7.688
454.6 7.680
454.8 7.740
455.0 7.766
455.2 7.850
455.4 8.223
455.6 8.069
455.8 7.755
456.0 8.038
456.2 7.989
456.4 7.736
456.6 7.968
456.8 8.005
457.0 8.278
457.2 8.360
457.4 8.555
457.6 8.643
457.8 8.910
458.0 8.687
458.2 8.932
458.4 8.769
458.6 8.644
458.8 8.376
459.0 8.616
459.2 8.613
459.4 8.272
459.6 8.482
459.8 8.554
460.0 8.822
460.2 8.657
460.4 8.812
460.6 8.558
460.8 8.396
461.0 8.244
461.2 8.549
461.4 8.708
461.6 8.881
461.8 9.071
462.0 9.194
462.2 9.219
462.4 9.097
462.6 8.936
462.8 8.946
463.0 8.864
463.2 8.723
463.4 8.700
463.6 8.879
463.8 9.060
464.0 8.948
464.2 8.618
464.4 8.780
464.6 8.656
464.8 8.588
465.0 8.469
465.2 8.162
465.4 8.077
465.6 7.971
465.8 7.883
466.0 7.707
466.2 7.676
466.4 7.542
466.6 7.377
466.8 7.322
467.0 7.059
467.2 7.303
467.4 6.963
467.6 7.055
467.8 6.843
468.0 6.844
468.2 6.793
468.4 6.675
468.6 6.658
468.8 6.561
469.0 6.679
469.2 6.431
469.4 6.446
469.6 6.138
469.8 6.243
470.0 6.351
470.2 6.252
470.4 6.161
470.6 6.223
470.8 6.113
471.0 6.003
471.2 5.779
471.4 5.539
471.6 5.581
471.8 5.470
472.0 5.393
472.2 5.402
472.4 5.326
472.6 5.139
472.8 5.132
473.0 5.145
473.2 5.045
473.4 5.130
473.6 4.932
473.8 4.722
474.0 4.639
474.2 4.356
474.4 4.600
474.6 4.580
474.8 4.565
475.0 4.360
475.2 4.283
475.4 4.263
475.6 4.115
475.8 4.029
476.0 3.895
476.2 3.853
476.4 3.777
476.6 4.106
476.8 4.007
477.0 3.874
477.2 3.795
477.4 3.800
477.6 3.618
477.8 3.447
478.0 3.470
478.2 3.213
478.4 3.083
478.6 3.157
478.8 3.189
479.0 3.149
479.2 3.149
479.4 2.882
479.6 2.843
479.8 2.836
480.0 2.718
480.2 2.662
480.4 2.696
480.6 2.716
480.8 2.639
481.0 2.610
481.2 2.581
481.4 2.389
481.6 2.460
481.8 2.528
482.0 2.591
482.2 2.449
482.4 2.346
482.6 2.364
482.8 2.307
483.0 2.278
483.2 2.315
483.4 2.377
483.6 2.249
483.8 2.228
484.0 2.462
484.2 2.269
484.4 2.169
484.6 2.119
484.8 2.063
485.0 2.080
485.2 2.153
485.4 2.109
485.6 1.988
485.8 2.030
486.0 2.084
486.2 2.226
486.4 2.150
486.6 2.147
486.8 2.112
487.0 2.115
487.2 2.090
487.4 2.179
487.6 2.328
487.8 2.379
488.0 2.278
488.2 2.302
488.4 2.373
488.6 2.319
488.8 2.264
489.0 2.383
489.2 2.374
489.4 2.326
489.6 2.489
489.8 2.494
490.0 2.526
490.2 2.603
490.4 2.549
490.6 2.704
490.8 2.707
491.0 2.646
491.2 2.676
491.4 2.713
491.6 2.685
491.8 2.697
492.0 2.775
492.2 2.900
492.4 2.812
492.6 2.919
492.8 2.832
493.0 2.862
493.2 3.140
493.4 3.258
493.6 3.233
493.8 3.275
494.0 3.443
494.2 3.385
494.4 3.233
494.6 3.227
494.8 3.337
495.0 3.437
495.2 3.457
495.4 3.618
495.6 3.413
495.8 3.650
496.0 3.656
496.2 3.710
496.4 3.894
496.6 3.843
496.8 3.912
497.0 4.175
497.2 4.241
497.4 4.336
497.6 4.306
497.8 4.333
498.0 4.475
498.2 4.516
498.4 4.643
498.6 4.663
498.8 4.657
499.0 4.628
499.2 4.562
499.4 4.853
499.6 5.086
499.8 5.339
500.0 5.129
500.2 4.954
500.4 4.948
500.6 5.372
500.8 5.305
501.0 5.282
501.2 5.312
501.4 5.422
501.6 5.499
501.8 5.379
502.0 5.493
502.2 5.405
502.4 5.309
502.6 5.270
502.8 5.445
503.0 5.764
503.2 6.191
503.4 6.036
503.6 5.987
503.8 6.007
504.0 5.997
504.2 6.070
504.4 6.376
504.6 6.322
504.8 6.568
505.0 6.744
505.2 6.802
505.4 6.779
505.6 6.700
505.8 6.797
506.0 6.895
506.2 6.877
506.4 6.892
506.6 7.028
506.8 7.250
507.0 6.977
507.2 7.223
507.4 7.561
507.6 7.620
507.8 7.490
508.0 7.676
508.2 7.777
508.4 7.675
508.6 7.688
508.8 7.659
509.0 7.817
509.2 8.232
509.4 8.399
509.6 8.390
509.8 8.328
510.0 8.751
510.2 8.890
510.4 8.986
510.6 9.081
510.8 8.867
511.0 8.767
511.2 9.118
511.4 9.485
511.6 9.287
511.8 9.954
512.0 9.921
512.2 10.13
512.4 10.13
512.6 10.22
512.8 10.41
513.0 10.77
513.2 10.95
513.4 10.96
513.6 10.80
513.8 11.00
514.0 11.04
514.2 11.58
514.4 11.42
514.6 11.56
514.8 11.43
515.0 11.67
515.2 11.61
515.4 12.00
515.6 11.95
515.8 12.16
516.0 12.32
516.2 12.56
516.4 12.83
516.6 12.76
516.8 12.95
517.0 13.23
517.2 13.43
517.4 13.78
517.6 14.09
517.8 14.45
518.0 14.37
518.2 14.41
518.4 14.63
518.6 14.93
518.8 14.92
519.0 14.87
519.2 15.02
519.4 15.51
519.6 15.85
519.8 16.04
520.0 16.16
520.2 16.09
520.4 16.14
520.6 16.75
520.8 16.70
521.0 16.85
521.2 16.45
521.4 16.79
521.6 17.09
521.8 17.46
522.0 17.68
522.2 17.67
522.4 18.28
522.6 18.02
522.8 18.26
523.0 18.87
523.2 18.86
523.4 19.20
523.6 19.60
523.8 19.92
524.0 19.84
524.2 20.11
524.4 19.65
524.6 19.96
524.8 20.09
525.0 21.18
525.2 21.12
525.4 20.97
525.6 21.24
525.8 21.48
526.0 21.78
526.2 22.10
526.4 22.09
526.6 22.02
526.8 22.68
527.0 22.56
527.2 22.66
527.4 23.04
527.6 23.34
527.8 23.68
528.0 24.15
528.2 23.86
528.4 23.47
528.6 24.05
528.8 23.57
529.0 24.01
529.2 24.01
529.4 24.21
529.6 25.01
529.8 25.65
530.0 26.40
530.2 26.93
530.4 27.10
530.6 26.96
530.8 26.93
531.0 27.32
531.2 27.37
531.4 26.94
531.6 26.87
531.8 27.25
532.0 27.42
532.2 28.20
532.4 28.55
532.6 28.86
532.8 29.28
533.0 28.69
533.2 28.89
533.4 29.55
533.6 29.77
533.8 30.50
534.0 31.60
534.2 31.25
534.4 32.08
534.6 32.11
534.8 32.02
535.0 31.48
535.2 32.25
535.4 32.55
535.6 32.38
535.8 32.59
536.0 32.37
536.2 32.61
536.4 32.71
536.6 32.84
536.8 32.78
537.0 33.42
537.2 33.67
537.4 34.21
537.6 34.38
537.8 34.86
538.0 34.21
538.2 34.50
538.4 35.06
538.6 34.75
538.8 34.82
539.0 35.90
539.2 36.16
539.4 35.52
539.6 36.04
539.8 36.90
540.0 36.76
540.2 36.55
540.4 36.59
540.6 36.47
540.8 36.27
541.0 36.69
541.2 36.66
541.4 37.83
541.6 37.80
541.8 38.29
542.0 38.74
542.2 38.78
542.4 39.75
542.6 39.82
542.8 40.00
543.0 40.36
543.2 39.91
543.4 40.65
543.6 40.28
543.8 41.41
544.0 41.77
544.2 41.64
544.4 41.23
544.6 41.50
544.8 41.86
545.0 41.83
545.2 41.68
545.4 40.82
545.6 40.86
545.8 41.12
546.0 41.43
546.2 41.30
546.4 41.32
546.6 42.08
546.8 42.12
547.0 41.54
547.2 42.15
547.4 42.91
547.6 42.80
547.8 43.13
548.0 43.40
548.2 43.36
548.4 42.93
548.6 43.38
548.8 43.61
549.0 44.45
549.2 43.72
549.4 43.71
549.6 43.77
549.8 44.48
550.0 44.26
550.2 44.05
550.4 44.37
550.6 44.48
550.8 43.88
551.0 43.53
551.2 43.83
551.4 44.05
551.6 44.37
551.8 44.44
552.0 43.70
552.2 43.63
552.4 43.62
552.6 43.68
552.8 43.63
553.0 42.95
553.2 44.20
553.4 43.66
553.6 43.64
553.8 43.05
554.0 43.23
554.2 43.61
554.4 43.96
554.6 43.64
554.8 42.94
555.0 43.85
555.2 43.42
555.4 43.59
555.6 43.62
555.8 42.99
556.0 43.83
556.2 43.83
556.4 43.52
556.6 43.84
556.8 42.37
557.0 42.29
557.2 41.80
557.4 41.88
557.6 42.47
557.8 42.89
558.0 42.51
558.2 41.64
558.4 42.13
558.6 41.60
558.8 41.02
559.0 40.83
559.2 41.09
559.4 41.10
559.6 41.92
559.8 41.43
560.0 41.62
560.2 41.88
560.4 41.68
560.6 42.12
560.8 42.08
561.0 42.61
561.2 42.64
561.4 42.30
561.6 42.90
561.8 42.39
562.0 42.72
562.2 42.98
562.4 42.72
562.6 42.13
562.8 42.25
563.0 42.64
563.2 42.65
563.4 41.89
563.6 41.54
563.8 40.49
564.0 39.76
564.2 39.79
564.4 40.16
564.6 40.05
564.8 40.07
565.0 39.31
565.2 38.37
565.4 38.72
565.6 38.48
565.8 37.75
566.0 37.53
566.2 37.12
566.4 36.67
566.6 36.71
566.8 36.59
567.0 35.88
567.2 35.94
567.4 36.00
567.6 35.71
567.8 34.76
568.0 34.76
568.2 34.00
568.4 33.39
568.6 32.99
568.8 32.05
569.0 31.46
569.2 30.90
569.4 30.34
569.6 30.01
569.8 29.50
570.0 28.80
570.2 28.20
570.4 27.96
570.6 27.63
570.8 26.60
571.0 25.70
571.2 25.11
571.4 24.52
571.6 24.39
571.8 23.36
572.0 22.49
572.2 21.90
572.4 21.65
572.6 21.34
572.8 20.77
573.0 20.20
573.2 19.70
573.4 18.81
573.6 18.67
573.8 18.46
574.0 18.50
574.2 18.12
574.4 17.13
574.6 16.66
574.8 16.17
575.0 15.53
575.2 15.15
575.4 14.95
575.6 14.38
575.8 14.00
576.0 13.14
576.2 12.89
576.4 12.17
576.6 11.37
576.8 10.95
577.0 10.40
577.2 10.16
577.4 9.646
577.6 9.527
577.8 9.103
578.0 8.686
578.2 8.529
578.4 8.205
578.6 7.735
578.8 7.606
579.0 7.593
579.2 7.407
579.4 7.215
579.6 6.774
579.8 6.604
580.0 5.974
580.2 5.700
580.4 5.667
580.6 5.473
580.8 5.258
581.0 4.972
581.2 4.746
581.4 4.377
581.6 4.459
581.8 4.331
582.0 4.083
582.2 4.069
582.4 3.783
582.6 3.700
582.8 3.579
583.0 3.500
583.2 3.345
583.4 3.288
583.6 3.267
583.8 3.123
584.0 2.854
584.2 2.742
584.4 2.516
584.6 2.390
584.8 2.266
585.0 2.215
585.2 2.059
585.4 1.933
585.6 2.017
585.8 1.823
586.0 1.849
586.2 1.636
586.4 1.601
586.6 1.662
586.8 1.627
587.0 1.578
587.2 1.746
587.4 1.612
587.6 1.482
587.8 1.443
588.0 1.437
588.2 1.424
588.4 1.412
588.6 1.333
588.8 1.308
589.0 1.267
589.2 1.134
589.4 1.168
589.6 1.071
589.8 1.193
590.0 1.113
590.2 1.040
590.4 1.091
590.6 1.087
590.8 1.142
591.0 1.210
591.2 1.257
591.4 1.448
591.6 1.608
591.8 1.740
592.0 1.938
592.2 2.396
592.4 2.812
592.6 3.611
592.8 4.093
593.0 4.688
593.2 5.653
593.4 6.853
593.6 7.959
593.8 9.490
594.0 10.79
594.2 13.05
594.4 14.78
594.6 17.23
594.8 19.78
595.0 22.43
595.2 25.74
595.4 28.58
595.6 32.17
595.8 36.49
596.0 40.61
596.2 44.11
596.4 47.48
596.6 52.72
596.8 58.01
597.0 64.38
597.2 69.02
597.4 74.03
597.6 79.68
597.8 84.80
598.0 90.50
598.2 95.40
598.4 100.3
598.6 104.8
598.8 108.4
599.0 112.7
599.2 116.6
599.4 119.9
599.6 122.2
599.8 124.4
600.0 126.7
600.2 128.0
600.4 128.4
600.6 127.7
600.8 127.1
601.0 125.0
601.2 123.0
601.4 122.3
601.6 119.1
601.8 116.2
602.0 113.2
602.2 109.2
602.4 106.3
602.6 101.4
602.8 96.70
603.0 91.35
603.2 86.31
603.4 81.40
603.6 77.19
603.8 72.66
604.0 68.13
604.2 63.04
604.4 57.40
604.6 52.48
604.8 47.66
605.0 43.11
605.2 38.98
605.4 34.78
605.6 30.84
605.8 27.34
606.0 24.93
606.2 21.62
606.4 18.79
606.6 16.33
606.8 14.36
607.0 12.26
607.2 10.34
607.4 9.168
607.6 8.114
607.8 6.701
608.0 5.786
608.2 4.902
608.4 3.986
608.6 3.155
608.8 2.771
609.0 2.380
609.2 1.921
609.4 1.659
609.6 1.458
609.8 1.254
610.0 1.138
610.2 0.946
610.4 0.785
610.6 0.663
610.8 0.623
611.0 0.687
611.2 0.632
611.4 0.659
611.6 0.646
611.8 0.611
612.0 0.544
612.2 0.436
612.4 0.371
612.6 0.473
612.8 0.479
613.0 0.483
613.2 0.414
613.4 0.456
613.6 0.464
613.8 0.460
614.0 0.426
614.2 0.370
614.4 0.437
614.6 0.443
614.8 0.423
615.0 0.390
615.2 0.432
615.4 0.442
615.6 0.478
615.8 0.485
616.0 0.443
616.2 0.388
616.4 0.324
616.6 0.347
616.8 0.359
617.0 0.320
617.2 0.323
617.4 0.370
617.6 0.358
617.8 0.408
618.0 0.439
618.2 0.449
618.4 0.474
618.6 0.477
618.8 0.466
619.0 0.523
619.2 0.582
619.4 0.524
619.6 0.429
619.8 0.473
620.0 0.502
620.2 0.523
620.4 0.501
620.6 0.474
620.8 0.574
621.0 0.539
621.2 0.585
621.4 0.467
621.6 0.466
621.8 0.367
622.0 0.373
622.2 0.424
622.4 0.446
622.6 0.428
622.8 0.479
623.0 0.525
623.2 0.499
623.4 0.490
623.6 0.441
623.8 0.597
624.0 0.601
624.2 0.594
624.4 0.568
624.6 0.651
624.8 0.613
625.0 0.580
625.2 0.591
625.4 0.651
625.6 0.703
625.8 0.659
626.0 0.705
626.2 0.565
626.4 0.661
626.6 0.613
626.8 0.504
627.0 0.558
627.2 0.486
627.4 0.563
627.6 0.566
627.8 0.493
628.0 0.464
628.2 0.441
628.4 0.581
628.6 0.509
628.8 0.460
629.0 0.542
629.2 0.446
629.4 0.401
629.6 0.421
629.8 0.431
630.0 0.528
630.2 0.504
630.4 0.424
630.6 0.379
630.8 0.369
631.0 0.414
631.2 0.492
631.4 0.430
631.6 0.572
631.8 0.617
632.0 0.534
632.2 0.638
632.4 0.646
632.6 0.738
632.8 0.577
633.0 0.512
633.2 0.519
633.4 0.530
633.6 0.606
633.8 0.568
634.0 0.515
634.2 0.493
634.4 0.369
634.6 0.356
634.8 0.418
635.0 0.473
635.2 0.503
635.4 0.554
635.6 0.509
635.8 0.523
636.0 0.461
636.2 0.503
636.4 0.571
636.6 0.567
636.8 0.640
637.0 0.570
637.2 0.522
637.4 0.515
637.6 0.562
637.8 0.523
638.0 0.537
638.2 0.554
638.4 0.575
638.6 0.531
638.8 0.541
639.0 0.553
639.2 0.539
639.4 0.588
639.6 0.581
639.8 0.531
640.0 0.544
640.2 0.588
640.4 0.616
640.6 0.596
640.8 0.555
641.0 0.553
641.2 0.575
641.4 0.501
641.6 0.578
641.8 0.650
642.0 0.626
642.2 0.552
642.4 0.570
642.6 0.529
642.8 0.564
643.0 0.616
643.2 0.594
643.4 0.675
643.6 0.842
643.8 0.742
644.0 0.620
644.2 0.526
644.4 0.500
644.6 0.452
644.8 0.418
645.0 0.497
645.2 0.482
645.4 0.614
645.6 0.543
645.8 0.494
646.0 0.557
646.2 0.592
646.4 0.593
646.6 0.488
646.8 0.542
647.0 0.675
647.2 0.658
647.4 0.588
647.6 0.574
647.8 0.581
648.0 0.609
648.2 0.541
648.4 0.525
648.6 0.706
648.8 0.739
649.0 0.830
649.2 0.880
649.4 0.744
649.6 0.657
649.8 0.597
650.0 0.556
650.2 0.650
650.4 0.732
650.6 0.693
650.8 0.679
651.0 0.618
651.2 0.769
651.4 0.756
651.6 0.702
651.8 0.761
652.0 0.781
652.2 0.724
652.4 0.818
652.6 0.944
652.8 0.740
653.0 0.797
653.2 0.728
653.4 0.664
653.6 0.656
653.8 0.705
654.0 0.680
654.2 0.710
654.4 0.761
654.6 0.723
654.8 0.644
655.0 0.616
655.2 0.725
655.4 0.754
655.6 0.812
655.8 0.785
656.0 0.805
656.2 0.721
656.4 0.689
656.6 0.682
656.8 0.689
657.0 0.890
657.2 0.860
657.4 0.842
657.6 0.742
657.8 0.793
658.0 0.765
658.2 0.689
658.4 0.592
658.6 0.643
658.8 0.581
659.0 0.687
659.2 0.682
659.4 0.698
659.6 0.698
659.8 0.727
660.0 0.733
660.2 0.785
660.4 0.801
660.6 0.778
660.8 0.905
661.0 0.836
661.2 0.968
661.4 0.825
661.6 0.783
661.8 0.896
662.0 0.808
662.2 0.694
662.4 0.841
662.6 0.913
662.8 0.848
663.0 0.928
663.2 0.847
663.4 1.050
663.6 0.944
663.8 0.759
664.0 0.804
664.2 0.885
664.4 0.969
664.6 0.857
664.8 0.835
665.0 0.823
665.2 0.813
665.4 0.953
665.6 0.765
665.8 0.930
666.0 1.044
666.2 0.973
666.4 0.808
666.6 0.665
666.8 0.754
667.0 0.706
667.2 0.954
667.4 1.032
667.6 0.969
667.8 0.845
668.0 0.827
668.2 0.821
668.4 0.868
668.6 0.857
668.8 0.898
669.0 0.968
669.2 0.981
669.4 0.983
669.6 1.100
669.8 0.941
670.0 1.064
670.2 0.999
670.4 0.940
670.6 1.097
670.8 1.197
671.0 1.114
671.2 1.119
671.4 1.010
671.6 0.951
671.8 0.987
672.0 0.930
672.2 1.041
672.4 1.062
672.6 1.008
672.8 1.063
673.0 0.991
673.2 1.021
673.4 1.136
673.6 1.147
673.8 1.137
674.0 1.159
674.2 1.189
674.4 1.094
674.6 1.052
674.8 1.017
675.0 1.015
675.2 1.021
675.4 0.997
675.6 1.023
675.8 1.174
676.0 1.216
676.2 1.145
676.4 1.168
676.6 1.210
676.8 1.117
677.0 1.172
677.2 1.257
677.4 1.450
677.6 1.425
677.8 1.367
678.0 1.622
678.2 1.385
678.4 1.476
678.6 1.377
678.8 1.306
679.0 1.315
679.2 1.345
679.4 1.352
679.6 1.328
679.8 1.513
680.0 1.618
680.2 1.373
680.4 1.299
680.6 1.208
680.8 1.170
681.0 1.193
681.2 1.364
681.4 1.475
681.6 1.503
681.8 1.427
682.0 1.593
682.2 1.477
682.4 1.425
682.6 1.356
682.8 1.388
683.0 1.435
683.2 1.445
683.4 1.289
683.6 1.286
683.8 1.286
684.0 1.357
684.2 1.366
684.4 1.308
684.6 1.285
684.8 1.428
685.0 1.293
685.2 1.428
685.4 1.486
685.6 1.497
685.8 1.560
686.0 1.394
686.2 1.473
686.4 1.417
686.6 1.369
686.8 1.387
687.0 1.473
687.2 1.430
687.4 1.497
687.6 1.454
687.8 1.641
688.0 1.533
688.2 1.409
688.4 1.367
688.6 1.387
688.8 1.597
689.0 1.598
689.2 1.373
689.4 1.453
689.6 1.413
689.8 1.681
690.0 1.805
690.2 1.914
690.4 2.012
690.6 1.827
690.8 1.788
691.0 1.711
691.2 1.752
691.4 1.691
691.6 1.673
691.8 1.571
692.0 1.657
692.2 1.744
692.4 1.638
692.6 1.641
692.8 1.492
693.0 1.624
693.2 1.854
693.4 2.018
693.6 1.933
693.8 2.181
694.0 2.227
694.2 2.496
694.4 2.251
694.6 2.063
694.8 2.021
695.0 2.122
695.2 1.942
695.4 1.790
695.6 1.676
695.8 2.019
696.0 1.920
696.2 2.080
696.4 2.107
696.6 2.090
696.8 2.158
697.0 2.159
697.2 2.129
697.4 2.538
697.6 2.449
697.8 2.324
698.0 1.988
698.2 2.095
698.4 2.056
698.6 2.000
698.8 1.895
699.0 1.830
699.2 1.780
699.4 1.955
699.6 1.988
699.8 2.011
700.0 1.872
700.2 1.794
700.4 1.870
700.6 1.913
700.8 2.198
701.0 2.006
701.2 2.102
701.4 2.211
701.6 2.151
701.8 2.330
702.0 2.182
702.2 2.022
702.4 2.210
702.6 2.173
702.8 2.233
703.0 2.180
703.2 2.030
703.4 2.276
703.6 2.095
703.8 2.036
704.0 2.072
704.2 2.042
704.4 1.925
704.6 1.947
704.8 1.887
705.0 1.918
705.2 1.789
705.4 1.739
705.6 1.687
705.8 1.646
706.0 1.715
706.2 1.706
706.4 1.574
706.6 1.660
706.8 1.510
707.0 1.465
707.2 1.588
707.4 1.851
707.6 1.734
707.8 1.683
708.0 1.490
708.2 1.235
708.4 1.146
708.6 1.157
708.8 1.149
709.0 1.489
709.2 1.415
709.4 1.525
709.6 1.755
709.8 1.666
710.0 1.569
710.2 1.469
710.4 1.594
710.6 1.472
710.8 1.308
711.0 1.397
711.2 1.466
711.4 1.302
711.6 1.369
711.8 1.366
712.0 1.348
712.2 1.222
712.4 1.095
712.6 1.011
712.8 1.103
713.0 1.141
713.2 0.982
713.4 0.993
713.6 1.056
713.8 0.927
714.0 0.894
714.2 1.016
714.4 1.155
714.6 1.094
714.8 1.049
715.0 1.012
715.2 0.919
715.4 1.120
715.6 1.187
715.8 1.060
716.0 0.969
716.2 0.929
716.4 0.987
716.6 0.874
716.8 0.910
717.0 0.881
717.2 0.926
717.4 1.007
717.6 1.012
717.8 0.945
718.0 0.909
718.2 0.840
718.4 0.754
718.6 0.591
718.8 0.525
719.0 0.624
719.2 0.717
719.4 0.666
719.6 0.683
719.8 0.638
720.0 0.577
720.2 0.491
720.4 0.509
720.6 0.658
720.8 0.789
721.0 0.763
721.2 0.811
721.4 0.751
721.6 0.723
721.8 0.684
722.0 0.723
722.2 0.654
722.4 0.663
722.6 0.697
722.8 0.763
723.0 0.845
723.2 0.801
723.4 0.830
723.6 0.764
723.8 0.764
724.0 0.738
724.2 0.677
724.4 0.656
724.6 0.626
724.8 0.776
725.0 0.772
725.2 0.679
725.4 0.669
725.6 0.580
725.8 0.562
726.0 0.585
726.2 0.566
726.4 0.562
726.6 0.539
726.8 0.475
727.0 0.574
727.2 0.527
727.4 0.688
727.6 0.712
727.8 0.620
728.0 0.802
728.2 0.697
728.4 0.699
728.6 0.716
728.8 0.507
729.0 0.433
729.2 0.527
729.4 0.476
729.6 0.393
729.8 0.489
730.0 0.529
730.2 0.444
730.4 0.364
730.6 0.479
730.8 0.503
731.0 0.430
731.2 0.467
731.4 0.509
731.6 0.526
731.8 0.691
732.0 0.642
732.2 0.572
732.4 0.503
732.6 0.456
732.8 0.541
733.0 0.569
733.2 0.612
733.4 0.587
733.6 0.644
733.8 0.576
734.0 0.641
734.2 0.606
734.4 0.543
734.6 0.527
734.8 0.498
735.0 0.510
735.2 0.537
735.4 0.519
735.6 0.496
735.8 0.614
736.0 0.661
736.2 0.746
736.4 0.704
736.6 0.694
736.8 0.655
737.0 0.670
737.2 0.596
737.4 0.542
737.6 0.576
737.8 0.610
738.0 0.600
738.2 0.733
738.4 0.682
738.6 0.589
738.8 0.592
739.0 0.637
739.2 0.645
739.4 0.631
739.6 0.720
739.8 0.705
740.0 0.679
740.2 0.688
740.4 0.646
740.6 0.695
740.8 0.664
741.0 0.730
741.2 0.654
741.4 0.727
741.6 0.695
741.8 0.668
742.0 0.755
742.2 0.711
742.4 0.747
742.6 0.853
742.8 0.708
743.0 0.707
743.2 0.720
743.4 0.701
743.6 0.800
743.8 0.922
744.0 0.896
744.2 0.659
744.4 0.716
744.6 0.681
744.8 0.818
745.0 0.806
745.2 0.761
745.4 0.826
745.6 0.787
745.8 0.884
746.0 1.073
746.2 1.069
746.4 1.053
746.6 0.897
746.8 0.890
747.0 0.757
747.2 0.709
747.4 0.796
747.6 0.827
747.8 0.650
748.0 0.697
748.2 0.965
748.4 0.909
748.6 1.006
748.8 1.134
749.0 1.133
749.2 1.038
749.4 1.023
749.6 1.159
749.8 1.340
750.0 1.337
750.2 1.160
750.4 1.115
750.6 0.950
750.8 0.922
751.0 1.199
751.2 1.160
751.4 0.984
751.6 0.980
751.8 1.016
752.0 1.138
752.2 1.235
752.4 1.181
752.6 1.052
752.8 1.041
753.0 1.005
753.2 1.044
753.4 1.187
753.6 1.102
753.8 1.119
754.0 1.071
754.2 1.192
754.4 1.349
754.6 1.237
754.8 1.327
755.0 1.360
755.2 1.253
755.4 1.288
755.6 1.303
755.8 1.506
756.0 1.739
756.2 1.543
756.4 1.459
756.6 1.670
756.8 1.401
757.0 1.440
757.2 1.545
757.4 1.458
757.6 1.475
757.8 1.493
758.0 1.512
758.2 1.468
758.4 1.261
758.6 1.190
758.8 1.400
759.0 1.509
759.2 1.579
759.4 1.704
759.6 1.456
759.8 1.469
760.0 1.625
760.2 1.489
760.4 1.573
760.6 1.499
760.8 1.490
761.0 1.465
761.2 1.463
761.4 1.668
761.6 1.763
761.8 1.878
762.0 1.922
762.2 1.795
762.4 1.804
762.6 1.819
762.8 1.807
763.0 1.767
763.2 2.055
763.4 1.775
763.6 1.665
763.8 1.644
764.0 1.534
764.2 1.336
764.4 1.401
764.6 1.447
764.8 1.488
765.0 1.513
765.2 1.577
765.4 1.376
765.6 1.428
765.8 1.572
766.0 1.534
766.2 1.559
766.4 1.533
766.6 1.440
766.8 1.686
767.0 1.774
767.2 1.759
767.4 1.772
767.6 1.579
767.8 1.652
768.0 1.463
768.2 1.458
768.4 1.770
768.6 1.705
768.8 1.692
769.0 1.649
769.2 1.795
769.4 1.914
769.6 1.891
769.8 1.982
770.0 2.111
770.2 1.993
770.4 2.191
770.6 1.906
770.8 2.200
771.0 2.368
771.2 2.492
771.4 2.387
771.6 2.334
771.8 2.292
772.0 2.488
772.2 2.586
772.4 2.615
772.6 2.682
772.8 2.902
773.0 2.874
773.2 2.933
773.4 3.203
773.6 3.269
773.8 3.161
774.0 2.903
774.2 3.138
774.4 3.331
774.6 3.819
774.8 3.777
775.0 3.643
775.2 3.819
775.4 3.697
775.6 3.772
775.8 3.925
776.0 3.741
776.2 4.039
776.4 4.071
776.6 3.919
776.8 3.621
777.0 3.812
777.2 4.236
777.4 4.109
777.6 4.030
777.8 3.794
778.0 4.240
778.2 4.711
778.4 4.809
778.6 4.426
778.8 4.554
779.0 4.724
779.2 5.368
779.4 5.429
779.6 5.402
779.8 5.163
780.0 5.082
780.2 5.386
780.4 5.870
780.6 5.518
780.8 5.335
781.0 5.649
781.2 5.659
781.4 5.654
781.6 5.546
781.8 5.938
782.0 5.604
782.2 5.705
782.4 5.713
782.6 5.403
782.8 5.546
783.0 5.272
783.2 5.057
783.4 5.342
783.6 5.602
783.8 5.228
784.0 5.459
784.2 6.030
784.4 5.720
784.6 5.753
784.8 5.795
785.0 6.553
785.2 6.427
785.4 6.331
785.6 6.343
785.8 6.232
786.0 5.942
786.2 6.806
786.4 6.121
786.6 5.902
786.8 5.916
787.0 6.081
787.2 6.007
787.4 5.868
787.6 5.749
787.8 6.146
788.0 6.148
788.2 5.869
788.4 6.548
788.6 6.085
788.8 5.842
789.0 6.181
789.2 6.204
789.4 6.385
789.6 6.552
789.8 6.284
790.0 6.158
790.2 6.205
790.4 6.390
790.6 6.944
790.8 6.714
791.0 6.768
791.2 6.810
791.4 6.987
791.6 6.859
791.8 6.706
792.0 6.993
792.2 6.674
792.4 6.747
792.6 6.863
792.8 6.940
793.0 6.507
793.2 6.374
793.4 6.516
793.6 6.955
793.8 7.320
794.0 6.847
794.2 6.642
794.4 6.712
794.6 6.904
794.8 7.439
795.0 7.346
795.2 7.550
795.4 7.726
795.6 7.672
795.8 7.576
796.0 7.593
796.2 7.480
796.4 7.426
796.6 7.803
796.8 7.863
797.0 8.038
797.2 8.054
797.4 8.315
797.6 8.112
797.8 8.214
798.0 8.162
798.2 7.943
798.4 7.373
798.6 7.342
798.8 7.761
799.0 7.723
799.2 8.203
799.4 8.210
799.6 8.657
799.8 8.339
800.0 8.050
800.2 8.200
800.4 8.015
800.6 8.058
800.8 7.970
801.0 8.146
801.2 8.252
801.4 7.758
801.6 7.985
801.8 7.928
802.0 8.158
802.2 8.181
802.4 8.306
802.6 8.739
802.8 8.330
803.0 8.575
803.2 8.558
803.4 8.478
803.6 8.331
803.8 8.798
804.0 9.061
804.2 9.040
804.4 8.914
804.6 8.465
804.8 8.958
805.0 9.030
805.2 8.910
805.4 8.997
805.6 9.188
805.8 9.406
806.0 10.09
806.2 9.970
806.4 10.61
806.6 10.32
806.8 10.23
807.0 9.723
807.2 9.854
807.4 9.778
807.6 10.60
807.8 9.881
808.0 10.13
808.2 10.16
808.4 9.917
808.6 9.707
808.8 9.482
809.0 9.591
809.2 10.05
809.4 10.13
809.6 10.08
809.8 10.28
810.0 10.79
810.2 10.29
810.4 10.25
810.6 10.34
810.8 10.27
811.0 10.85
811.2 10.73
811.4 10.57
811.6 10.42
811.8 10.92
812.0 10.95
812.2 10.45
812.4 10.67
812.6 10.55
812.8 11.49
813.0 11.04
813.2 10.59
813.4 10.77
813.6 10.68
813.8 10.55
814.0 10.36
814.2 10.49
814.4 10.24
814.6 10.04
814.8 9.926
815.0 9.750
815.2 9.743
815.4 10.03
815.6 9.800
815.8 9.592
816.0 9.840
816.2 9.876
816.4 10.29
816.6 9.865
816.8 9.778
817.0 9.382
817.2 9.059
817.4 9.289
817.6 9.390
817.8 9.375
818.0 9.639
818.2 9.716
818.4 9.561
818.6 9.224
818.8 9.205
819.0 8.788
819.2 8.351
819.4 8.319
819.6 7.897
819.8 7.920
820.0 7.982
820.2 7.784
820.4 7.349
820.6 7.025
820.8 6.817
821.0 6.772
821.2 6.573
821.4 6.049
821.6 5.530
821.8 5.518
822.0 5.235
822.2 4.892
822.4 4.489
822.6 4.033
822.8 3.843
823.0 3.632
823.2 3.423
823.4 3.319
823.6 3.036
823.8 2.854
824.0 2.776
824.2 2.730
824.4 2.630
824.6 2.593
824.8 2.521
825.0 2.349
825.2 2.201
825.4 2.053
825.6 1.890
825.8 1.848
826.0 1.801
826.2 1.782
826.4 1.722
826.6 1.725
826.8 1.654
827.0 1.644
827.2 1.667
827.4 1.647
827.6 1.693
827.8 1.733
828.0 1.786
828.2 1.797
828.4 1.767
828.6 1.733
828.8 1.759
829.0 1.681
829.2 1.688
829.4 1.775
829.6 1.711
829.8 1.763
830.0 1.774
830.2 1.871
830.4 1.941
830.6 1.860
830.8 1.972
831.0 1.975
831.2 2.080
831.4 2.199
831.6 2.449
831.8 2.373
832.0 2.458
832.2 2.394
832.4 2.387
832.6 2.517
832.8 2.623
833.0 2.778
833.2 2.893
833.4 2.989
833.6 3.034
833.8 3.079
834.0 3.170
834.2 3.143
834.4 3.325
834.6 3.470
834.8 3.511
835.0 3.539
835.2 3.806
835.4 3.606
835.6 3.724
835.8 3.886
836.0 3.991
836.2 4.080
836.4 4.025
836.6 4.209
836.8 4.032
837.0 4.202
837.2 4.161
837.4 4.382
837.6 4.383
837.8 4.288
838.0 4.277
838.2 4.342
838.4 4.549
838.6 4.440
838.8 4.303
839.0 4.440
839.2 4.581
839.4 4.613
839.6 4.493
839.8 4.440
840.0 4.556
840.2 4.683
840.4 4.611
840.6 4.852
840.8 5.190
841.0 5.352
841.2 5.719
841.4 5.563
841.6 5.772
841.8 5.986
842.0 6.192
842.2 5.949
842.4 6.204
842.6 6.326
842.8 6.101
843.0 6.238
843.2 6.508
843.4 6.585
843.6 6.685
843.8 6.508
844.0 6.826
844.2 7.149
844.4 6.937
844.6 7.306
844.8 7.275
845.0 7.447
845.2 7.668
845.4 7.697
845.6 8.256
845.8 8.622
846.0 8.132
846.2 8.327
846.4 8.876
846.6 8.752
846.8 8.472
847.0 8.876
847.2 9.641
847.4 9.734
847.6 9.833
847.8 11.37
848.0 11.26
848.2 11.09
848.4 11.67
848.6 11.52
848.8 11.71
849.0 11.46
849.2 12.18
849.4 11.94
849.6 11.88
849.8 12.86
850.0 12.29
850.2 13.15
850.4 13.62
850.6 13.17
850.8 12.89
851.0 13.52
851.2 13.92
851.4 14.39
851.6 13.85
851.8 13.92
852.0 13.60
852.2 13.63
852.4 13.77
852.6 13.69
852.8 14.20
853.0 13.99
853.2 14.71
853.4 15.56
853.6 15.64
853.8 15.88
854.0 15.80
854.2 15.79
854.4 15.09
854.6 14.64
854.8 15.16
855.0 15.35
855.2 15.19
855.4 14.68
855.6 14.46
855.8 14.08
856.0 15.08
856.2 14.78
856.4 14.86
856.6 14.26
856.8 14.65
857.0 14.16
857.2 13.68
857.4 13.95
857.6 13.78
857.8 13.84
858.0 13.94
858.2 13.97
858.4 13.46
858.6 13.09
858.8 13.21
859.0 13.01
859.2 12.53
859.4 12.91
859.6 12.38
859.8 11.93
860.0 11.84
860.2 11.51
860.4 11.29
860.6 10.64
860.8 10.88
861.0 11.01
861.2 10.08
861.4 9.618
861.6 9.209
861.8 8.966
862.0 9.405
862.2 9.343
862.4 9.170
862.6 8.688
862.8 8.530
863.0 8.164
863.2 8.036
863.4 8.633
863.6 7.931
863.8 7.753
864.0 7.416
864.2 7.539
864.4 7.464
864.6 7.316
864.8 7.488
865.0 7.087
865.2 7.002
865.4 6.703
865.6 6.415
865.8 6.068
866.0 5.774
866.2 5.597
866.4 5.305
866.6 5.200
866.8 5.083
867.0 5.285
867.2 4.991
867.4 5.061
867.6 4.851
867.8 4.614
868.0 4.379
868.2 4.197
868.4 4.482
868.6 4.618
868.8 4.306
869.0 4.555
869.2 4.113
869.4 4.231
869.6 4.188
869.8 3.792
870.0 3.580
870.2 3.225
870.4 3.365
870.6 3.056
870.8 2.978
871.0 3.135
871.2 2.977
871.4 3.027
871.6 3.033
871.8 2.977
872.0 2.800
872.2 2.764
872.4 2.527
872.6 2.507
872.8 2.427
873.0 2.177
873.2 2.127
873.4 2.076
873.6 2.112
873.8 2.117
874.0 2.059
874.2 2.034
874.4 1.801
874.6 1.775
874.8 1.641
875.0 1.568
875.2 1.539
875.4 1.441
875.6 1.359
875.8 1.318
876.0 1.223
876.2 1.195
876.4 1.281
876.6 1.123
876.8 1.263
877.0 1.184
877.2 1.123
877.4 1.007
877.6 1.010
877.8 0.909
878.0 0.987
878.2 0.969
878.4 0.957
878.6 1.017
878.8 0.931
879.0 0.849
879.2 0.887
879.4 0.724
879.6 0.683
879.8 0.570
880.0 0.584
880.2 0.488
880.4 0.450
880.6 0.373
880.8 0.327
881.0 0.352
881.2 0.399
881.4 0.360
881.6 0.374
881.8 0.347
882.0 0.328
882.2 0.284
882.4 0.292
882.6 0.276
882.8 0.261
883.0 0.261
883.2 0.209
883.4 0.181
883.6 0.163
883.8 0.175
884.0 0.175
884.2 0.171
884.4 0.149
884.6 0.135
884.8 0.109
885.0 0.130
885.2 0.115
885.4 0.111
885.6 0.125
885.8 0.135
886.0 0.113
886.2 0.129
886.4 0.105
886.6 0.090
886.8 0.103
887.0 0.107
887.2 0.134
887.4 0.106
887.6 0.091
887.8 0.098
888.0 0.112
888.2 0.100
888.4 0.078
888.6 0.102
888.8 0.117
889.0 0.116
889.2 0.094
889.4 0.086
889.6 0.094
889.8 0.086
890.0 0.072
890.2 0.088
890.4 0.101
890.6 0.098
890.8 0.099
891.0 0.128
891.2 0.139
891.4 0.175
891.6 0.186
891.8 0.174
892.0 0.143
892.2 0.139
892.4 0.177
892.6 0.137
892.8 0.148
893.0 0.129
893.2 0.169
893.4 0.172
893.6 0.211
893.8 0.161
894.0 0.200
894.2 0.215
894.4 0.261
894.6 0.198
894.8 0.227
895.0 0.201
895.2 0.223
895.4 0.251
895.6 0.283
895.8 0.251
896.0 0.264
896.2 0.277
896.4 0.273
896.6 0.230
896.8 0.224
897.0 0.249
897.2 0.270
897.4 0.304
897.6 0.286
897.8 0.266
898.0 0.232
898.2 0.220
898.4 0.312
898.6 0.289
898.8 0.261
899.0 0.276
899.2 0.339
899.4 0.399
899.6 0.367
899.8 0.411
900.0 0.319
##END=
