##TITLE= ex-se
##JCAMP-DX= 4.24
##DATA TYPE= FL SPECTRUM
##ORIGIN= 
##OWNER= Lenovo
##DATE= 15:43:34, 05/11/2026
##SAMPLE DESCRIPTION= 1
##SPECTROMETER/DATA SYSTEM= Hitachi Model F-4600 FL Spectrophotometer;
Serial Number: 2313-003;
ROM Version: 5J24000 01;
##INSTRUMENT PARAMETERS= Scan mode= Excitation;
Data mode= Fluorescence;
EM WL= 700.0 nm;
Scan speed= 1200 nm/min;
Delay= 0.0 s;
EX Slit= 5.0 nm;
EM Slit= 5.0 nm;
PMT Voltage= 700 V;
Response= 0.1 s;
Corrected spectra= Off;
##DELTAX= 0.2
##XLABEL= nm
##YLABEL= Data
##XUNITS= NANOMETERS
##YUNITS= ARBITRARY UNITS
##XFACTOR= 1.0
##YFACTOR= 1.0
##FIRSTX= 200.0
##LASTX= 900.0
##NPOINTS= 3501
##XYDATA= (X++(Y..Y))
200.0 93.68
200.2 102.2
200.4 110.1
200.6 114.6
200.8 111.1
201.0 105.3
201.2 102.9
201.4 102.1
201.6 101.9
201.8 112.1
202.0 107.8
202.2 101.9
202.4 108.5
202.6 107.2
202.8 110.0
203.0 112.4
203.2 112.2
203.4 118.8
203.6 120.9
203.8 135.6
204.0 133.4
204.2 137.0
204.4 134.6
204.6 151.4
204.8 148.8
205.0 145.8
205.2 149.6
205.4 151.6
205.6 152.7
205.8 148.2
206.0 150.2
206.2 153.6
206.4 167.5
206.6 158.7
206.8 160.4
207.0 160.7
207.2 163.0
207.4 157.8
207.6 158.4
207.8 159.2
208.0 152.0
208.2 160.4
208.4 162.2
208.6 156.7
208.8 164.1
209.0 161.3
209.2 163.6
209.4 167.0
209.6 166.8
209.8 168.8
210.0 168.6
210.2 147.5
210.4 152.6
210.6 152.5
210.8 152.4
211.0 156.0
211.2 159.8
211.4 158.6
211.6 156.8
211.8 155.7
212.0 164.5
212.2 176.1
212.4 172.0
212.6 171.3
212.8 164.5
213.0 158.4
213.2 163.9
213.4 160.5
213.6 166.7
213.8 163.3
214.0 167.4
214.2 155.0
214.4 148.4
214.6 144.8
214.8 149.7
215.0 150.8
215.2 147.8
215.4 157.3
215.6 147.6
215.8 154.3
216.0 154.8
216.2 154.6
216.4 165.1
216.6 164.7
216.8 169.3
217.0 175.9
217.2 168.6
217.4 182.8
217.6 178.5
217.8 186.0
218.0 194.3
218.2 183.3
218.4 184.9
218.6 182.6
218.8 191.3
219.0 190.3
219.2 188.9
219.4 195.9
219.6 189.5
219.8 189.8
220.0 178.3
220.2 180.0
220.4 178.6
220.6 186.5
220.8 190.2
221.0 209.9
221.2 209.0
221.4 221.3
221.6 218.9
221.8 217.4
222.0 224.4
222.2 238.7
222.4 245.9
222.6 239.3
222.8 251.8
223.0 266.4
223.2 282.0
223.4 263.9
223.6 266.2
223.8 282.9
224.0 302.5
224.2 324.0
224.4 323.3
224.6 326.3
224.8 335.3
225.0 361.8
225.2 358.5
225.4 369.9
225.6 380.6
225.8 402.5
226.0 410.3
226.2 433.4
226.4 446.6
226.6 459.4
226.8 489.1
227.0 487.3
227.2 498.1
227.4 513.4
227.6 545.7
227.8 562.6
228.0 577.5
228.2 608.7
228.4 593.8
228.6 584.9
228.8 586.0
229.0 596.0
229.2 586.8
229.4 578.0
229.6 595.9
229.8 607.3
230.0 604.2
230.2 619.7
230.4 633.3
230.6 633.2
230.8 629.0
231.0 630.7
231.2 637.4
231.4 632.5
231.6 634.3
231.8 631.1
232.0 647.4
232.2 640.4
232.4 636.5
232.6 645.7
232.8 648.4
233.0 645.1
233.2 652.2
233.4 639.3
233.6 626.3
233.8 626.9
234.0 633.7
234.2 625.7
234.4 610.4
234.6 608.7
234.8 625.2
235.0 618.8
235.2 613.5
235.4 609.7
235.6 600.0
235.8 608.0
236.0 618.1
236.2 614.6
236.4 614.9
236.6 618.9
236.8 604.8
237.0 602.8
237.2 609.6
237.4 619.5
237.6 622.0
237.8 615.0
238.0 607.2
238.2 605.6
238.4 608.3
238.6 613.0
238.8 621.0
239.0 620.8
239.2 636.0
239.4 623.6
239.6 629.1
239.8 635.5
240.0 639.4
240.2 645.4
240.4 646.0
240.6 647.7
240.8 643.2
241.0 651.6
241.2 654.5
241.4 651.3
241.6 648.1
241.8 654.8
242.0 667.9
242.2 672.8
242.4 671.3
242.6 689.5
242.8 690.4
243.0 689.3
243.2 691.0
243.4 688.4
243.6 691.4
243.8 698.0
244.0 708.3
244.2 717.2
244.4 720.6
244.6 739.5
244.8 739.3
245.0 733.2
245.2 731.5
245.4 730.7
245.6 738.5
245.8 744.8
246.0 748.6
246.2 764.3
246.4 774.8
246.6 779.9
246.8 770.0
247.0 774.6
247.2 781.4
247.4 779.4
247.6 794.3
247.8 799.4
248.0 805.2
248.2 815.5
248.4 824.7
248.6 822.0
248.8 845.9
249.0 849.1
249.2 854.8
249.4 844.3
249.6 860.8
249.8 879.3
250.0 902.6
250.2 904.5
250.4 925.1
250.6 928.7
250.8 932.2
251.0 953.1
251.2 970.7
251.4 980.1
251.6 994.8
251.8  1007
252.0  1020
252.2  1028
252.4  1029
252.6  1056
252.8  1067
253.0  1079
253.2  1086
253.4  1095
253.6  1109
253.8  1117
254.0  1132
254.2  1136
254.4  1162
254.6  1180
254.8  1191
255.0  1200
255.2  1214
255.4  1230
255.6  1251
255.8  1266
256.0  1278
256.2  1298
256.4  1318
256.6  1330
256.8  1327
257.0  1334
257.2  1344
257.4  1350
257.6  1351
257.8  1356
258.0  1375
258.2  1394
258.4  1417
258.6  1427
258.8  1428
259.0  1435
259.2  1455
259.4  1469
259.6  1483
259.8  1487
260.0  1502
260.2  1511
260.4  1522
260.6  1540
260.8  1547
261.0  1566
261.2  1572
261.4  1573
261.6  1588
261.8  1602
262.0  1610
262.2  1630
262.4  1647
262.6  1647
262.8  1672
263.0  1682
263.2  1693
263.4  1704
263.6  1701
263.8  1713
264.0  1730
264.2  1747
264.4  1757
264.6  1764
264.8  1780
265.0  1787
265.2  1788
265.4  1800
265.6  1816
265.8  1821
266.0  1821
266.2  1848
266.4  1858
266.6  1858
266.8  1870
267.0  1872
267.2  1877
267.4  1874
267.6  1887
267.8  1907
268.0  1927
268.2  1940
268.4  1950
268.6  1950
268.8  1949
269.0  1954
269.2  1958
269.4  1969
269.6  1964
269.8  1965
270.0  1982
270.2  1982
270.4  1978
270.6  1984
270.8  1999
271.0  2002
271.2  1999
271.4  2010
271.6  2023
271.8  2030
272.0  2039
272.2  2028
272.4  2043
272.6  2043
272.8  2046
273.0  2034
273.2  2046
273.4  2048
273.6  2044
273.8  2033
274.0  2029
274.2  2032
274.4  2053
274.6  2044
274.8  2045
275.0  2049
275.2  2058
275.4  2062
275.6  2060
275.8  2059
276.0  2062
276.2  2053
276.4  2065
276.6  2072
276.8  2075
277.0  2068
277.2  2062
277.4  2075
277.6  2081
277.8  2084
278.0  2082
278.2  2072
278.4  2082
278.6  2083
278.8  2075
279.0  2064
279.2  2060
279.4  2055
279.6  2062
279.8  2064
280.0  2053
280.2  2040
280.4  2040
280.6  2037
280.8  2031
281.0  2023
281.2  2019
281.4  2010
281.6  2001
281.8  1998
282.0  1998
282.2  1988
282.4  1986
282.6  1981
282.8  1971
283.0  1963
283.2  1972
283.4  1970
283.6  1970
283.8  1959
284.0  1958
284.2  1945
284.4  1934
284.6  1925
284.8  1920
285.0  1923
285.2  1912
285.4  1919
285.6  1907
285.8  1904
286.0  1901
286.2  1893
286.4  1893
286.6  1874
286.8  1867
287.0  1865
287.2  1849
287.4  1838
287.6  1829
287.8  1821
288.0  1826
288.2  1798
288.4  1788
288.6  1772
288.8  1762
289.0  1744
289.2  1727
289.4  1711
289.6  1695
289.8  1669
290.0  1651
290.2  1629
290.4  1605
290.6  1576
290.8  1556
291.0  1527
291.2  1501
291.4  1475
291.6  1443
291.8  1418
292.0  1393
292.2  1367
292.4  1342
292.6  1308
292.8  1275
293.0  1243
293.2  1212
293.4  1178
293.6  1152
293.8  1120
294.0  1095
294.2  1068
294.4  1036
294.6  1007
294.8 976.1
295.0 943.6
295.2 911.9
295.4 884.0
295.6 852.8
295.8 823.7
296.0 799.7
296.2 773.7
296.4 746.9
296.6 719.1
296.8 693.9
297.0 670.8
297.2 644.8
297.4 625.9
297.6 603.2
297.8 582.0
298.0 556.0
298.2 533.8
298.4 510.4
298.6 491.0
298.8 469.1
299.0 451.2
299.2 429.8
299.4 413.0
299.6 395.5
299.8 380.0
300.0 364.4
300.2 345.2
300.4 329.9
300.6 319.1
300.8 307.1
301.0 293.5
301.2 281.6
301.4 267.7
301.6 254.5
301.8 243.7
302.0 231.4
302.2 223.4
302.4 212.7
302.6 201.7
302.8 190.7
303.0 181.7
303.2 172.4
303.4 160.9
303.6 154.3
303.8 147.4
304.0 140.7
304.2 132.8
304.4 127.8
304.6 120.7
304.8 114.0
305.0 107.6
305.2 102.2
305.4 96.59
305.6 90.62
305.8 86.01
306.0 80.44
306.2 75.06
306.4 71.19
306.6 66.73
306.8 63.12
307.0 59.98
307.2 57.29
307.4 55.19
307.6 51.63
307.8 48.14
308.0 45.50
308.2 43.71
308.4 41.90
308.6 40.24
308.8 38.17
309.0 35.67
309.2 33.68
309.4 31.07
309.6 29.03
309.8 27.72
310.0 26.06
310.2 25.21
310.4 23.77
310.6 22.85
310.8 21.74
311.0 20.94
311.2 19.72
311.4 19.11
311.6 18.70
311.8 17.90
312.0 17.27
312.2 16.17
312.4 15.06
312.6 14.11
312.8 13.15
313.0 12.67
313.2 11.90
313.4 11.31
313.6 10.33
313.8 9.576
314.0 9.004
314.2 9.224
314.4 8.541
314.6 7.952
314.8 7.345
315.0 6.913
315.2 6.467
315.4 6.210
315.6 5.795
315.8 5.391
316.0 5.312
316.2 4.937
316.4 4.753
316.6 4.414
316.8 4.102
317.0 3.846
317.2 3.695
317.4 3.331
317.6 3.150
317.8 2.850
318.0 2.752
318.2 2.894
318.4 2.555
318.6 2.227
318.8 2.285
319.0 2.165
319.2 2.323
319.4 2.079
319.6 2.142
319.8 2.132
320.0 2.040
320.2 1.773
320.4 1.677
320.6 1.483
320.8 1.500
321.0 1.538
321.2 1.514
321.4 1.506
321.6 1.334
321.8 1.477
322.0 1.433
322.2 1.531
322.4 1.270
322.6 1.327
322.8 1.195
323.0 1.075
323.2 1.088
323.4 1.029
323.6 0.935
323.8 0.920
324.0 0.921
324.2 0.947
324.4 0.896
324.6 0.792
324.8 0.847
325.0 0.986
325.2 0.877
325.4 0.894
325.6 1.108
325.8 1.027
326.0 1.189
326.2 1.064
326.4 0.992
326.6 0.978
326.8 0.823
327.0 0.818
327.2 0.797
327.4 0.812
327.6 0.898
327.8 0.895
328.0 0.894
328.2 0.851
328.4 0.861
328.6 0.884
328.8 0.785
329.0 0.743
329.2 0.659
329.4 0.736
329.6 0.655
329.8 0.688
330.0 0.626
330.2 0.596
330.4 0.602
330.6 0.603
330.8 0.660
331.0 0.632
331.2 0.687
331.4 0.661
331.6 0.833
331.8 0.750
332.0 0.664
332.2 0.573
332.4 0.575
332.6 0.646
332.8 0.648
333.0 0.591
333.2 0.761
333.4 0.616
333.6 0.697
333.8 0.610
334.0 0.705
334.2 0.643
334.4 0.722
334.6 0.709
334.8 0.748
335.0 0.738
335.2 0.815
335.4 0.844
335.6 0.824
335.8 0.789
336.0 0.658
336.2 0.764
336.4 0.823
336.6 0.665
336.8 0.619
337.0 0.663
337.2 0.603
337.4 0.623
337.6 0.641
337.8 0.548
338.0 0.534
338.2 0.651
338.4 0.661
338.6 0.567
338.8 0.831
339.0 0.731
339.2 0.701
339.4 0.694
339.6 0.671
339.8 0.527
340.0 0.571
340.2 0.610
340.4 0.580
340.6 0.626
340.8 0.666
341.0 0.752
341.2 0.935
341.4 0.930
341.6 1.133
341.8 1.434
342.0 1.574
342.2 1.836
342.4 2.515
342.6 2.793
342.8 3.449
343.0 4.181
343.2 5.050
343.4 6.226
343.6 7.391
343.8 8.875
344.0 10.31
344.2 12.21
344.4 14.22
344.6 16.53
344.8 18.87
345.0 21.64
345.2 24.04
345.4 26.98
345.6 30.55
345.8 34.49
346.0 37.40
346.2 40.14
346.4 43.33
346.6 47.12
346.8 49.87
347.0 53.54
347.2 56.74
347.4 59.61
347.6 63.58
347.8 65.69
348.0 67.53
348.2 69.40
348.4 71.25
348.6 72.41
348.8 72.60
349.0 73.61
349.2 74.07
349.4 74.01
349.6 72.75
349.8 71.79
350.0 71.25
350.2 69.68
350.4 67.99
350.6 64.44
350.8 62.38
351.0 59.14
351.2 56.19
351.4 52.39
351.6 49.76
351.8 46.29
352.0 43.08
352.2 39.33
352.4 36.57
352.6 33.40
352.8 30.17
353.0 26.70
353.2 23.88
353.4 21.72
353.6 18.82
353.8 16.56
354.0 14.46
354.2 12.11
354.4 10.16
354.6 8.569
354.8 7.345
355.0 6.139
355.2 5.206
355.4 4.348
355.6 3.469
355.8 2.662
356.0 2.102
356.2 1.681
356.4 1.471
356.6 1.439
356.8 1.263
357.0 1.121
357.2 0.983
357.4 0.717
357.6 0.629
357.8 0.615
358.0 0.570
358.2 0.680
358.4 0.560
358.6 0.522
358.8 0.393
359.0 0.494
359.2 0.531
359.4 0.553
359.6 0.497
359.8 0.513
360.0 0.480
360.2 0.506
360.4 0.445
360.6 0.427
360.8 0.419
361.0 0.491
361.2 0.376
361.4 0.337
361.6 0.282
361.8 0.241
362.0 0.184
362.2 0.249
362.4 0.311
362.6 0.318
362.8 0.278
363.0 0.251
363.2 0.319
363.4 0.343
363.6 0.317
363.8 0.292
364.0 0.344
364.2 0.333
364.4 0.308
364.6 0.277
364.8 0.306
365.0 0.414
365.2 0.463
365.4 0.406
365.6 0.433
365.8 0.324
366.0 0.364
366.2 0.442
366.4 0.425
366.6 0.367
366.8 0.439
367.0 0.465
367.2 0.393
367.4 0.354
367.6 0.352
367.8 0.451
368.0 0.486
368.2 0.477
368.4 0.391
368.6 0.344
368.8 0.309
369.0 0.256
369.2 0.253
369.4 0.280
369.6 0.270
369.8 0.215
370.0 0.229
370.2 0.302
370.4 0.254
370.6 0.199
370.8 0.206
371.0 0.194
371.2 0.208
371.4 0.215
371.6 0.212
371.8 0.274
372.0 0.255
372.2 0.252
372.4 0.261
372.6 0.274
372.8 0.265
373.0 0.280
373.2 0.297
373.4 0.317
373.6 0.209
373.8 0.230
374.0 0.327
374.2 0.281
374.4 0.225
374.6 0.316
374.8 0.299
375.0 0.378
375.2 0.313
375.4 0.251
375.6 0.270
375.8 0.196
376.0 0.303
376.2 0.270
376.4 0.241
376.6 0.267
376.8 0.314
377.0 0.358
377.2 0.267
377.4 0.237
377.6 0.203
377.8 0.258
378.0 0.215
378.2 0.223
378.4 0.217
378.6 0.273
378.8 0.264
379.0 0.310
379.2 0.239
379.4 0.240
379.6 0.245
379.8 0.423
380.0 0.354
380.2 0.385
380.4 0.355
380.6 0.321
380.8 0.240
381.0 0.267
381.2 0.264
381.4 0.310
381.6 0.323
381.8 0.372
382.0 0.287
382.2 0.223
382.4 0.199
382.6 0.194
382.8 0.163
383.0 0.192
383.2 0.224
383.4 0.235
383.6 0.176
383.8 0.148
384.0 0.221
384.2 0.256
384.4 0.291
384.6 0.292
384.8 0.319
385.0 0.335
385.2 0.370
385.4 0.365
385.6 0.298
385.8 0.269
386.0 0.270
386.2 0.272
386.4 0.364
386.6 0.344
386.8 0.338
387.0 0.303
387.2 0.240
387.4 0.278
387.6 0.284
387.8 0.298
388.0 0.336
388.2 0.283
388.4 0.279
388.6 0.345
388.8 0.376
389.0 0.352
389.2 0.384
389.4 0.385
389.6 0.333
389.8 0.285
390.0 0.273
390.2 0.253
390.4 0.272
390.6 0.243
390.8 0.285
391.0 0.261
391.2 0.217
391.4 0.213
391.6 0.183
391.8 0.221
392.0 0.271
392.2 0.249
392.4 0.330
392.6 0.340
392.8 0.375
393.0 0.412
393.2 0.411
393.4 0.369
393.6 0.348
393.8 0.392
394.0 0.306
394.2 0.311
394.4 0.283
394.6 0.298
394.8 0.415
395.0 0.463
395.2 0.358
395.4 0.415
395.6 0.342
395.8 0.386
396.0 0.333
396.2 0.308
396.4 0.292
396.6 0.321
396.8 0.330
397.0 0.341
397.2 0.334
397.4 0.407
397.6 0.397
397.8 0.392
398.0 0.452
398.2 0.454
398.4 0.417
398.6 0.392
398.8 0.335
399.0 0.341
399.2 0.412
399.4 0.380
399.6 0.307
399.8 0.353
400.0 0.307
400.2 0.329
400.4 0.280
400.6 0.239
400.8 0.300
401.0 0.275
401.2 0.299
401.4 0.332
401.6 0.320
401.8 0.319
402.0 0.310
402.2 0.316
402.4 0.341
402.6 0.342
402.8 0.319
403.0 0.387
403.2 0.374
403.4 0.357
403.6 0.349
403.8 0.359
404.0 0.450
404.2 0.388
404.4 0.361
404.6 0.493
404.8 0.460
405.0 0.452
405.2 0.423
405.4 0.390
405.6 0.406
405.8 0.487
406.0 0.435
406.2 0.456
406.4 0.465
406.6 0.508
406.8 0.486
407.0 0.450
407.2 0.405
407.4 0.396
407.6 0.428
407.8 0.446
408.0 0.490
408.2 0.443
408.4 0.419
408.6 0.380
408.8 0.355
409.0 0.384
409.2 0.362
409.4 0.394
409.6 0.455
409.8 0.457
410.0 0.416
410.2 0.427
410.4 0.411
410.6 0.386
410.8 0.405
411.0 0.452
411.2 0.390
411.4 0.446
411.6 0.439
411.8 0.393
412.0 0.383
412.2 0.392
412.4 0.327
412.6 0.340
412.8 0.362
413.0 0.323
413.2 0.451
413.4 0.471
413.6 0.435
413.8 0.442
414.0 0.457
414.2 0.407
414.4 0.416
414.6 0.408
414.8 0.477
415.0 0.406
415.2 0.368
415.4 0.317
415.6 0.349
415.8 0.385
416.0 0.433
416.2 0.407
416.4 0.475
416.6 0.488
416.8 0.453
417.0 0.422
417.2 0.527
417.4 0.404
417.6 0.384
417.8 0.449
418.0 0.511
418.2 0.472
418.4 0.509
418.6 0.434
418.8 0.473
419.0 0.409
419.2 0.400
419.4 0.339
419.6 0.364
419.8 0.359
420.0 0.320
420.2 0.323
420.4 0.271
420.6 0.253
420.8 0.262
421.0 0.284
421.2 0.363
421.4 0.354
421.6 0.385
421.8 0.365
422.0 0.375
422.2 0.408
422.4 0.425
422.6 0.484
422.8 0.419
423.0 0.433
423.2 0.424
423.4 0.422
423.6 0.421
423.8 0.395
424.0 0.358
424.2 0.311
424.4 0.287
424.6 0.376
424.8 0.336
425.0 0.401
425.2 0.335
425.4 0.361
425.6 0.358
425.8 0.367
426.0 0.314
426.2 0.319
426.4 0.358
426.6 0.384
426.8 0.387
427.0 0.383
427.2 0.411
427.4 0.371
427.6 0.513
427.8 0.479
428.0 0.526
428.2 0.474
428.4 0.483
428.6 0.492
428.8 0.474
429.0 0.404
429.2 0.354
429.4 0.354
429.6 0.376
429.8 0.366
430.0 0.389
430.2 0.375
430.4 0.334
430.6 0.416
430.8 0.420
431.0 0.328
431.2 0.327
431.4 0.325
431.6 0.342
431.8 0.358
432.0 0.329
432.2 0.302
432.4 0.300
432.6 0.356
432.8 0.407
433.0 0.415
433.2 0.427
433.4 0.444
433.6 0.458
433.8 0.497
434.0 0.454
434.2 0.453
434.4 0.473
434.6 0.441
434.8 0.435
435.0 0.443
435.2 0.435
435.4 0.418
435.6 0.457
435.8 0.483
436.0 0.444
436.2 0.492
436.4 0.495
436.6 0.519
436.8 0.481
437.0 0.474
437.2 0.418
437.4 0.524
437.6 0.459
437.8 0.487
438.0 0.471
438.2 0.435
438.4 0.383
438.6 0.395
438.8 0.426
439.0 0.485
439.2 0.502
439.4 0.516
439.6 0.530
439.8 0.507
440.0 0.429
440.2 0.456
440.4 0.483
440.6 0.465
440.8 0.491
441.0 0.538
441.2 0.539
441.4 0.526
441.6 0.487
441.8 0.521
442.0 0.521
442.2 0.443
442.4 0.532
442.6 0.617
442.8 0.636
443.0 0.649
443.2 0.617
443.4 0.594
443.6 0.530
443.8 0.527
444.0 0.532
444.2 0.593
444.4 0.599
444.6 0.529
444.8 0.537
445.0 0.551
445.2 0.579
445.4 0.595
445.6 0.662
445.8 0.727
446.0 0.660
446.2 0.694
446.4 0.648
446.6 0.595
446.8 0.666
447.0 0.637
447.2 0.727
447.4 0.726
447.6 0.680
447.8 0.684
448.0 0.693
448.2 0.705
448.4 0.736
448.6 0.652
448.8 0.739
449.0 0.822
449.2 0.840
449.4 0.862
449.6 0.884
449.8 0.877
450.0 0.966
450.2 0.978
450.4 0.834
450.6 0.835
450.8 0.838
451.0 0.873
451.2 0.882
451.4 0.953
451.6 1.011
451.8 1.127
452.0 1.074
452.2 0.996
452.4 1.080
452.6 1.143
452.8 1.199
453.0 1.142
453.2 1.213
453.4 1.244
453.6 1.278
453.8 1.282
454.0 1.426
454.2 1.534
454.4 1.674
454.6 1.514
454.8 1.554
455.0 1.583
455.2 1.614
455.4 1.628
455.6 1.529
455.8 1.468
456.0 1.523
456.2 1.576
456.4 1.758
456.6 1.809
456.8 1.903
457.0 1.871
457.2 1.929
457.4 1.921
457.6 2.015
457.8 1.959
458.0 1.971
458.2 1.981
458.4 2.029
458.6 1.957
458.8 1.946
459.0 2.088
459.2 2.120
459.4 1.992
459.6 1.974
459.8 2.058
460.0 2.117
460.2 2.116
460.4 2.143
460.6 2.321
460.8 2.238
461.0 2.164
461.2 2.221
461.4 2.235
461.6 2.269
461.8 2.312
462.0 2.215
462.2 2.076
462.4 2.104
462.6 2.146
462.8 2.058
463.0 2.105
463.2 2.255
463.4 2.393
463.6 2.374
463.8 2.348
464.0 2.304
464.2 2.297
464.4 2.352
464.6 2.270
464.8 2.206
465.0 2.142
465.2 2.165
465.4 2.176
465.6 2.238
465.8 2.273
466.0 2.111
466.2 2.213
466.4 2.158
466.6 2.061
466.8 1.985
467.0 2.030
467.2 2.091
467.4 2.098
467.6 2.200
467.8 2.332
468.0 2.282
468.2 2.318
468.4 2.342
468.6 2.343
468.8 2.238
469.0 2.229
469.2 2.186
469.4 2.243
469.6 2.225
469.8 2.187
470.0 2.091
470.2 1.942
470.4 1.869
470.6 2.062
470.8 2.092
471.0 2.105
471.2 2.167
471.4 2.173
471.6 2.252
471.8 2.220
472.0 2.219
472.2 2.312
472.4 2.380
472.6 2.438
472.8 2.379
473.0 2.440
473.2 2.401
473.4 2.392
473.6 2.423
473.8 2.445
474.0 2.642
474.2 2.671
474.4 2.567
474.6 2.585
474.8 2.555
475.0 2.499
475.2 2.597
475.4 2.579
475.6 2.576
475.8 2.630
476.0 2.687
476.2 2.801
476.4 2.850
476.6 2.885
476.8 2.956
477.0 3.015
477.2 2.939
477.4 3.069
477.6 3.188
477.8 3.256
478.0 3.245
478.2 3.364
478.4 3.327
478.6 3.286
478.8 3.154
479.0 3.173
479.2 3.535
479.4 3.366
479.6 3.238
479.8 3.204
480.0 3.206
480.2 3.127
480.4 3.060
480.6 3.044
480.8 3.161
481.0 3.207
481.2 3.264
481.4 3.108
481.6 3.120
481.8 3.050
482.0 3.110
482.2 3.318
482.4 3.318
482.6 3.514
482.8 3.533
483.0 3.465
483.2 3.413
483.4 3.398
483.6 3.393
483.8 3.490
484.0 3.491
484.2 3.471
484.4 3.364
484.6 3.482
484.8 3.462
485.0 3.594
485.2 3.488
485.4 3.494
485.6 3.415
485.8 3.473
486.0 3.547
486.2 3.909
486.4 3.802
486.6 3.870
486.8 3.825
487.0 3.815
487.2 3.781
487.4 3.820
487.6 3.844
487.8 3.896
488.0 3.693
488.2 3.592
488.4 3.733
488.6 3.964
488.8 3.892
489.0 3.923
489.2 4.004
489.4 4.174
489.6 4.282
489.8 4.214
490.0 4.154
490.2 4.294
490.4 4.445
490.6 4.369
490.8 4.489
491.0 4.708
491.2 4.655
491.4 4.286
491.6 4.275
491.8 4.276
492.0 4.086
492.2 4.197
492.4 4.134
492.6 4.214
492.8 4.149
493.0 4.320
493.2 4.345
493.4 4.475
493.6 4.423
493.8 4.516
494.0 4.357
494.2 4.430
494.4 4.442
494.6 4.748
494.8 4.875
495.0 5.206
495.2 5.101
495.4 5.105
495.6 5.262
495.8 5.280
496.0 5.531
496.2 5.846
496.4 5.944
496.6 5.797
496.8 5.853
497.0 5.781
497.2 5.679
497.4 5.708
497.6 5.606
497.8 5.700
498.0 5.967
498.2 5.840
498.4 5.801
498.6 5.782
498.8 5.760
499.0 5.753
499.2 5.845
499.4 6.070
499.6 6.008
499.8 6.011
500.0 5.954
500.2 6.171
500.4 6.182
500.6 6.248
500.8 6.329
501.0 6.138
501.2 6.250
501.4 6.248
501.6 6.455
501.8 6.379
502.0 6.294
502.2 6.285
502.4 6.532
502.6 6.629
502.8 6.686
503.0 6.791
503.2 6.852
503.4 6.779
503.6 6.863
503.8 7.310
504.0 7.084
504.2 7.203
504.4 6.995
504.6 6.843
504.8 7.173
505.0 7.177
505.2 7.251
505.4 7.350
505.6 7.550
505.8 7.800
506.0 8.077
506.2 7.932
506.4 7.743
506.6 7.864
506.8 7.915
507.0 8.141
507.2 7.804
507.4 7.820
507.6 8.451
507.8 8.372
508.0 8.010
508.2 7.989
508.4 7.836
508.6 7.912
508.8 8.352
509.0 8.353
509.2 8.176
509.4 8.371
509.6 8.558
509.8 8.639
510.0 8.711
510.2 8.689
510.4 8.648
510.6 9.158
510.8 8.862
511.0 9.113
511.2 9.211
511.4 9.107
511.6 8.965
511.8 9.262
512.0 9.309
512.2 9.713
512.4 9.683
512.6 9.727
512.8 9.625
513.0 9.859
513.2 10.06
513.4 9.620
513.6 9.340
513.8 9.588
514.0 9.728
514.2 9.839
514.4 9.995
514.6 10.28
514.8 10.16
515.0 10.25
515.2 10.64
515.4 10.90
515.6 10.57
515.8 10.48
516.0 10.28
516.2 10.36
516.4 10.45
516.6 10.29
516.8 10.47
517.0 10.45
517.2 10.56
517.4 10.88
517.6 10.71
517.8 10.82
518.0 10.98
518.2 10.95
518.4 10.64
518.6 10.64
518.8 11.05
519.0 11.04
519.2 11.00
519.4 11.59
519.6 11.38
519.8 11.25
520.0 11.65
520.2 11.71
520.4 12.07
520.6 11.99
520.8 11.59
521.0 11.64
521.2 11.90
521.4 11.99
521.6 11.96
521.8 11.85
522.0 12.21
522.2 12.04
522.4 11.79
522.6 11.83
522.8 11.80
523.0 11.98
523.2 12.15
523.4 12.18
523.6 12.47
523.8 12.13
524.0 12.19
524.2 12.35
524.4 12.44
524.6 12.34
524.8 12.33
525.0 12.88
525.2 12.95
525.4 13.13
525.6 12.94
525.8 13.03
526.0 13.36
526.2 13.16
526.4 13.02
526.6 13.18
526.8 13.14
527.0 13.02
527.2 13.24
527.4 13.43
527.6 13.75
527.8 13.49
528.0 13.39
528.2 13.47
528.4 13.36
528.6 13.51
528.8 13.74
529.0 13.67
529.2 13.79
529.4 13.53
529.6 13.28
529.8 13.49
530.0 13.40
530.2 13.59
530.4 13.86
530.6 13.93
530.8 14.11
531.0 14.18
531.2 14.15
531.4 13.97
531.6 13.69
531.8 13.87
532.0 13.66
532.2 13.69
532.4 13.70
532.6 13.93
532.8 13.87
533.0 14.21
533.2 14.28
533.4 14.03
533.6 14.01
533.8 14.06
534.0 14.70
534.2 14.85
534.4 14.62
534.6 14.72
534.8 14.66
535.0 14.73
535.2 14.56
535.4 14.84
535.6 15.03
535.8 14.85
536.0 14.69
536.2 15.12
536.4 15.15
536.6 15.26
536.8 14.91
537.0 14.69
537.2 14.57
537.4 14.45
537.6 14.96
537.8 14.87
538.0 14.84
538.2 15.04
538.4 15.01
538.6 14.46
538.8 14.57
539.0 14.85
539.2 14.90
539.4 14.93
539.6 15.44
539.8 15.37
540.0 15.80
540.2 15.71
540.4 15.47
540.6 15.61
540.8 15.77
541.0 15.79
541.2 15.88
541.4 15.76
541.6 16.09
541.8 15.78
542.0 15.72
542.2 15.83
542.4 16.08
542.6 16.24
542.8 16.08
543.0 16.05
543.2 16.12
543.4 16.16
543.6 16.22
543.8 16.01
544.0 15.86
544.2 15.89
544.4 16.05
544.6 16.02
544.8 15.72
545.0 15.66
545.2 16.23
545.4 16.24
545.6 15.92
545.8 16.23
546.0 16.17
546.2 15.79
546.4 15.93
546.6 16.33
546.8 16.44
547.0 16.33
547.2 15.89
547.4 16.16
547.6 16.51
547.8 16.50
548.0 16.02
548.2 16.06
548.4 16.11
548.6 16.22
548.8 16.36
549.0 16.45
549.2 16.77
549.4 16.73
549.6 16.70
549.8 16.55
550.0 16.65
550.2 16.72
550.4 16.78
550.6 16.48
550.8 16.95
551.0 17.04
551.2 16.99
551.4 16.98
551.6 17.16
551.8 16.71
552.0 16.75
552.2 16.59
552.4 16.41
552.6 16.45
552.8 16.38
553.0 16.63
553.2 16.57
553.4 16.98
553.6 17.05
553.8 17.33
554.0 17.32
554.2 17.26
554.4 17.12
554.6 16.51
554.8 16.77
555.0 16.53
555.2 16.45
555.4 16.32
555.6 16.83
555.8 16.99
556.0 17.30
556.2 17.15
556.4 16.71
556.6 17.61
556.8 17.43
557.0 17.13
557.2 17.28
557.4 17.14
557.6 17.01
557.8 17.26
558.0 17.66
558.2 17.86
558.4 17.77
558.6 17.47
558.8 17.45
559.0 17.93
559.2 17.49
559.4 17.31
559.6 17.67
559.8 17.77
560.0 18.12
560.2 18.19
560.4 17.85
560.6 17.59
560.8 17.31
561.0 17.34
561.2 17.54
561.4 18.01
561.6 17.86
561.8 18.09
562.0 17.80
562.2 17.37
562.4 17.50
562.6 17.21
562.8 17.35
563.0 17.59
563.2 17.60
563.4 17.36
563.6 17.50
563.8 17.66
564.0 17.99
564.2 17.91
564.4 17.82
564.6 17.48
564.8 17.72
565.0 17.84
565.2 18.16
565.4 17.92
565.6 18.06
565.8 18.17
566.0 18.13
566.2 18.72
566.4 18.32
566.6 18.04
566.8 17.89
567.0 18.11
567.2 18.02
567.4 17.96
567.6 18.36
567.8 17.95
568.0 18.46
568.2 18.19
568.4 18.30
568.6 18.01
568.8 17.84
569.0 17.37
569.2 17.07
569.4 17.37
569.6 17.56
569.8 17.46
570.0 17.97
570.2 18.11
570.4 17.86
570.6 17.89
570.8 17.91
571.0 18.27
571.2 18.23
571.4 17.95
571.6 18.04
571.8 17.89
572.0 17.71
572.2 18.18
572.4 18.35
572.6 18.29
572.8 17.70
573.0 18.20
573.2 18.36
573.4 18.47
573.6 18.28
573.8 18.11
574.0 18.03
574.2 17.95
574.4 17.80
574.6 18.11
574.8 17.50
575.0 17.61
575.2 17.84
575.4 18.20
575.6 18.19
575.8 18.29
576.0 18.16
576.2 18.51
576.4 18.22
576.6 18.25
576.8 18.28
577.0 17.78
577.2 18.20
577.4 18.08
577.6 18.42
577.8 18.20
578.0 18.52
578.2 18.16
578.4 18.53
578.6 18.14
578.8 18.02
579.0 18.24
579.2 17.73
579.4 17.90
579.6 17.87
579.8 18.07
580.0 17.55
580.2 17.78
580.4 17.50
580.6 17.30
580.8 17.06
581.0 16.91
581.2 17.09
581.4 17.29
581.6 17.37
581.8 17.45
582.0 17.44
582.2 17.22
582.4 16.92
582.6 17.08
582.8 16.98
583.0 16.64
583.2 16.61
583.4 16.15
583.6 15.44
583.8 15.88
584.0 16.25
584.2 16.19
584.4 15.68
584.6 15.54
584.8 15.16
585.0 15.15
585.2 14.75
585.4 14.51
585.6 14.31
585.8 14.09
586.0 13.88
586.2 13.64
586.4 13.73
586.6 14.05
586.8 14.09
587.0 13.64
587.2 13.57
587.4 13.52
587.6 13.16
587.8 12.72
588.0 12.67
588.2 12.48
588.4 12.50
588.6 12.35
588.8 12.05
589.0 11.62
589.2 11.73
589.4 11.58
589.6 11.36
589.8 11.38
590.0 11.29
590.2 10.89
590.4 10.93
590.6 10.86
590.8 10.69
591.0 10.12
591.2 10.54
591.4 10.51
591.6 10.31
591.8 10.19
592.0 9.989
592.2 9.416
592.4 9.280
592.6 9.387
592.8 9.577
593.0 9.297
593.2 9.604
593.4 8.987
593.6 8.858
593.8 8.795
594.0 8.512
594.2 8.115
594.4 8.258
594.6 8.141
594.8 7.840
595.0 7.414
595.2 7.632
595.4 7.289
595.6 7.603
595.8 7.078
596.0 6.936
596.2 6.969
596.4 6.886
596.6 7.152
596.8 7.003
597.0 6.425
597.2 6.335
597.4 6.175
597.6 5.969
597.8 6.057
598.0 6.333
598.2 6.297
598.4 6.129
598.6 5.476
598.8 5.554
599.0 5.644
599.2 5.586
599.4 5.910
599.6 5.462
599.8 5.247
600.0 4.929
600.2 4.555
600.4 4.447
600.6 4.400
600.8 4.505
601.0 4.345
601.2 4.375
601.4 4.367
601.6 4.320
601.8 4.526
602.0 4.287
602.2 4.031
602.4 4.128
602.6 4.068
602.8 3.856
603.0 3.976
603.2 4.057
603.4 3.711
603.6 3.721
603.8 3.588
604.0 3.516
604.2 3.384
604.4 3.197
604.6 3.192
604.8 3.140
605.0 2.852
605.2 3.171
605.4 3.093
605.6 2.843
605.8 2.803
606.0 2.780
606.2 2.557
606.4 2.311
606.6 2.313
606.8 2.256
607.0 2.115
607.2 2.319
607.4 2.261
607.6 2.128
607.8 2.351
608.0 2.281
608.2 2.487
608.4 2.506
608.6 2.156
608.8 2.014
609.0 1.851
609.2 1.809
609.4 1.800
609.6 1.700
609.8 1.670
610.0 1.685
610.2 1.709
610.4 1.713
610.6 1.779
610.8 1.766
611.0 1.762
611.2 1.958
611.4 1.770
611.6 1.697
611.8 1.637
612.0 1.656
612.2 1.548
612.4 1.465
612.6 1.435
612.8 1.414
613.0 1.286
613.2 1.114
613.4 1.139
613.6 1.061
613.8 1.049
614.0 1.206
614.2 1.057
614.4 0.969
614.6 1.097
614.8 1.007
615.0 0.963
615.2 1.004
615.4 0.940
615.6 0.861
615.8 0.962
616.0 0.989
616.2 0.966
616.4 0.912
616.6 0.976
616.8 0.962
617.0 0.883
617.2 0.782
617.4 0.736
617.6 0.762
617.8 0.712
618.0 0.701
618.2 0.624
618.4 0.659
618.6 0.632
618.8 0.655
619.0 0.642
619.2 0.675
619.4 0.541
619.6 0.582
619.8 0.665
620.0 0.633
620.2 0.614
620.4 0.622
620.6 0.622
620.8 0.510
621.0 0.476
621.2 0.478
621.4 0.517
621.6 0.581
621.8 0.543
622.0 0.501
622.2 0.447
622.4 0.433
622.6 0.414
622.8 0.420
623.0 0.394
623.2 0.339
623.4 0.345
623.6 0.293
623.8 0.302
624.0 0.313
624.2 0.298
624.4 0.318
624.6 0.304
624.8 0.360
625.0 0.306
625.2 0.401
625.4 0.373
625.6 0.462
625.8 0.430
626.0 0.415
626.2 0.329
626.4 0.349
626.6 0.376
626.8 0.345
627.0 0.339
627.2 0.299
627.4 0.342
627.6 0.323
627.8 0.283
628.0 0.286
628.2 0.376
628.4 0.398
628.6 0.385
628.8 0.293
629.0 0.275
629.2 0.307
629.4 0.315
629.6 0.344
629.8 0.298
630.0 0.256
630.2 0.257
630.4 0.253
630.6 0.271
630.8 0.387
631.0 0.292
631.2 0.323
631.4 0.266
631.6 0.318
631.8 0.343
632.0 0.334
632.2 0.317
632.4 0.233
632.6 0.207
632.8 0.249
633.0 0.258
633.2 0.279
633.4 0.293
633.6 0.224
633.8 0.250
634.0 0.182
634.2 0.151
634.4 0.119
634.6 0.188
634.8 0.153
635.0 0.220
635.2 0.207
635.4 0.172
635.6 0.206
635.8 0.186
636.0 0.123
636.2 0.092
636.4 0.098
636.6 0.139
636.8 0.295
637.0 0.211
637.2 0.197
637.4 0.187
637.6 0.155
637.8 0.167
638.0 0.206
638.2 0.202
638.4 0.194
638.6 0.140
638.8 0.130
639.0 0.134
639.2 0.157
639.4 0.183
639.6 0.143
639.8 0.163
640.0 0.130
640.2 0.158
640.4 0.097
640.6 0.193
640.8 0.166
641.0 0.116
641.2 0.101
641.4 0.175
641.6 0.195
641.8 0.145
642.0 0.150
642.2 0.159
642.4 0.167
642.6 0.112
642.8 0.118
643.0 0.089
643.2 0.112
643.4 0.187
643.6 0.164
643.8 0.141
644.0 0.098
644.2 0.117
644.4 0.080
644.6 0.104
644.8 0.081
645.0 0.119
645.2 0.195
645.4 0.155
645.6 0.128
645.8 0.129
646.0 0.145
646.2 0.149
646.4 0.144
646.6 0.168
646.8 0.161
647.0 0.142
647.2 0.104
647.4 0.154
647.6 0.158
647.8 0.119
648.0 0.158
648.2 0.128
648.4 0.157
648.6 0.161
648.8 0.187
649.0 0.181
649.2 0.183
649.4 0.133
649.6 0.113
649.8 0.048
650.0 0.126
650.2 0.125
650.4 0.100
650.6 0.151
650.8 0.137
651.0 0.122
651.2 0.107
651.4 0.134
651.6 0.084
651.8 0.077
652.0 0.160
652.2 0.166
652.4 0.132
652.6 0.129
652.8 0.212
653.0 0.179
653.2 0.138
653.4 0.142
653.6 0.172
653.8 0.147
654.0 0.087
654.2 0.063
654.4 0.114
654.6 0.138
654.8 0.153
655.0 0.166
655.2 0.145
655.4 0.095
655.6 0.153
655.8 0.133
656.0 0.151
656.2 0.143
656.4 0.146
656.6 0.122
656.8 0.171
657.0 0.112
657.2 0.136
657.4 0.101
657.6 0.145
657.8 0.162
658.0 0.200
658.2 0.179
658.4 0.152
658.6 0.136
658.8 0.114
659.0 0.106
659.2 0.059
659.4 0.060
659.6 0.104
659.8 0.071
660.0 0.156
660.2 0.189
660.4 0.108
660.6 0.092
660.8 0.104
661.0 0.120
661.2 0.126
661.4 0.087
661.6 0.111
661.8 0.068
662.0 0.126
662.2 0.090
662.4 0.065
662.6 0.066
662.8 0.048
663.0 0.052
663.2 0.131
663.4 0.093
663.6 0.048
663.8 0.126
664.0 0.113
664.2 0.194
664.4 0.191
664.6 0.135
664.8 0.088
665.0 0.104
665.2 0.102
665.4 0.085
665.6 0.151
665.8 0.181
666.0 0.144
666.2 0.099
666.4 0.245
666.6 0.226
666.8 0.230
667.0 0.162
667.2 0.163
667.4 0.108
667.6 0.143
667.8 0.128
668.0 0.134
668.2 0.168
668.4 0.230
668.6 0.195
668.8 0.202
669.0 0.205
669.2 0.165
669.4 0.163
669.6 0.132
669.8 0.152
670.0 0.198
670.2 0.231
670.4 0.232
670.6 0.204
670.8 0.154
671.0 0.136
671.2 0.153
671.4 0.162
671.6 0.153
671.8 0.173
672.0 0.157
672.2 0.149
672.4 0.234
672.6 0.221
672.8 0.255
673.0 0.200
673.2 0.237
673.4 0.313
673.6 0.290
673.8 0.240
674.0 0.224
674.2 0.207
674.4 0.200
674.6 0.186
674.8 0.264
675.0 0.249
675.2 0.277
675.4 0.282
675.6 0.293
675.8 0.247
676.0 0.250
676.2 0.235
676.4 0.222
676.6 0.231
676.8 0.200
677.0 0.276
677.2 0.273
677.4 0.234
677.6 0.308
677.8 0.322
678.0 0.305
678.2 0.249
678.4 0.256
678.6 0.288
678.8 0.347
679.0 0.316
679.2 0.325
679.4 0.243
679.6 0.266
679.8 0.203
680.0 0.355
680.2 0.313
680.4 0.305
680.6 0.320
680.8 0.367
681.0 0.356
681.2 0.354
681.4 0.353
681.6 0.285
681.8 0.282
682.0 0.250
682.2 0.257
682.4 0.233
682.6 0.369
682.8 0.306
683.0 0.264
683.2 0.252
683.4 0.288
683.6 0.335
683.8 0.297
684.0 0.313
684.2 0.336
684.4 0.287
684.6 0.297
684.8 0.288
685.0 0.254
685.2 0.256
685.4 0.244
685.6 0.294
685.8 0.391
686.0 0.312
686.2 0.431
686.4 0.396
686.6 0.486
686.8 0.418
687.0 0.398
687.2 0.368
687.4 0.368
687.6 0.384
687.8 0.365
688.0 0.325
688.2 0.269
688.4 0.359
688.6 0.419
688.8 0.412
689.0 0.478
689.2 0.460
689.4 0.433
689.6 0.535
689.8 0.567
690.0 0.546
690.2 0.744
690.4 0.721
690.6 0.679
690.8 0.824
691.0 0.911
691.2 0.866
691.4 0.991
691.6 1.218
691.8 1.347
692.0 1.408
692.2 1.576
692.4 2.013
692.6 2.029
692.8 2.411
693.0 2.714
693.2 2.905
693.4 3.293
693.6 3.639
693.8 4.159
694.0 4.463
694.2 4.818
694.4 5.374
694.6 6.128
694.8 6.651
695.0 7.180
695.2 7.800
695.4 8.361
695.6 9.096
695.8 10.07
696.0 11.57
696.2 13.18
696.4 14.37
696.6 15.34
696.8 16.17
697.0 17.14
697.2 18.58
697.4 19.00
697.6 20.56
697.8 21.19
698.0 23.06
698.2 23.33
698.4 24.50
698.6 26.67
698.8 27.14
699.0 27.05
699.2 28.33
699.4 28.41
699.6 29.11
699.8 28.83
700.0 29.50
700.2 30.15
700.4 29.64
700.6 30.03
700.8 30.83
701.0 31.37
701.2 30.25
701.4 29.88
701.6 30.10
701.8 29.34
702.0 29.35
702.2 28.34
702.4 27.86
702.6 26.75
702.8 25.50
703.0 24.21
703.2 23.90
703.4 22.38
703.6 21.21
703.8 19.76
704.0 18.52
704.2 16.90
704.4 15.32
704.6 13.97
704.8 13.51
705.0 12.18
705.2 11.31
705.4 11.08
705.6 10.40
705.8 9.056
706.0 8.734
706.2 7.955
706.4 6.774
706.6 6.411
706.8 6.062
707.0 5.278
707.2 4.882
707.4 4.186
707.6 3.801
707.8 3.346
708.0 3.030
708.2 2.683
708.4 2.300
708.6 2.288
708.8 2.121
709.0 1.886
709.2 1.610
709.4 1.478
709.6 1.476
709.8 1.460
710.0 1.201
710.2 1.068
710.4 0.955
710.6 0.909
710.8 0.837
711.0 0.766
711.2 0.709
711.4 0.592
711.6 0.685
711.8 0.638
712.0 0.644
712.2 0.713
712.4 0.696
712.6 0.680
712.8 0.681
713.0 0.729
713.2 0.604
713.4 0.545
713.6 0.579
713.8 0.524
714.0 0.452
714.2 0.390
714.4 0.489
714.6 0.564
714.8 0.601
715.0 0.622
715.2 0.553
715.4 0.584
715.6 0.631
715.8 0.702
716.0 0.724
716.2 0.789
716.4 0.700
716.6 0.659
716.8 0.575
717.0 0.522
717.2 0.535
717.4 0.524
717.6 0.402
717.8 0.321
718.0 0.337
718.2 0.428
718.4 0.486
718.6 0.499
718.8 0.583
719.0 0.592
719.2 0.555
719.4 0.473
719.6 0.517
719.8 0.696
720.0 0.764
720.2 0.700
720.4 0.761
720.6 0.805
720.8 0.643
721.0 0.653
721.2 0.859
721.4 0.791
721.6 0.666
721.8 0.722
722.0 0.712
722.2 0.605
722.4 0.510
722.6 0.450
722.8 0.461
723.0 0.475
723.2 0.585
723.4 0.678
723.6 0.776
723.8 0.638
724.0 0.666
724.2 0.583
724.4 0.693
724.6 0.763
724.8 0.952
725.0 0.889
725.2 0.815
725.4 0.888
725.6 0.803
725.8 0.845
726.0 0.802
726.2 0.730
726.4 0.860
726.6 0.846
726.8 0.786
727.0 0.789
727.2 0.750
727.4 0.795
727.6 0.837
727.8 0.877
728.0 0.824
728.2 0.799
728.4 0.813
728.6 0.729
728.8 0.660
729.0 0.755
729.2 0.862
729.4 0.708
729.6 0.614
729.8 0.669
730.0 0.644
730.2 0.750
730.4 0.659
730.6 0.725
730.8 0.741
731.0 0.723
731.2 0.873
731.4 0.817
731.6 0.804
731.8 0.745
732.0 0.797
732.2 0.914
732.4 0.857
732.6 0.815
732.8 0.682
733.0 0.685
733.2 0.783
733.4 0.734
733.6 0.686
733.8 0.696
734.0 0.827
734.2 0.835
734.4 0.799
734.6 0.699
734.8 0.850
735.0 0.808
735.2 0.765
735.4 0.820
735.6 0.918
735.8 0.885
736.0 0.884
736.2 0.928
736.4 0.827
736.6 0.750
736.8 0.720
737.0 0.693
737.2 0.684
737.4 0.698
737.6 0.758
737.8 0.908
738.0 0.816
738.2 0.788
738.4 0.864
738.6 0.746
738.8 0.752
739.0 0.893
739.2 0.973
739.4 0.914
739.6 0.926
739.8 0.934
740.0 0.889
740.2 0.999
740.4 1.040
740.6 1.082
740.8 0.941
741.0 1.031
741.2 0.956
741.4 1.146
741.6 1.033
741.8 0.864
742.0 0.832
742.2 0.926
742.4 1.149
742.6 1.145
742.8 1.108
743.0 1.054
743.2 1.221
743.4 1.221
743.6 1.398
743.8 1.408
744.0 1.292
744.2 1.191
744.4 0.998
744.6 0.851
744.8 0.965
745.0 1.081
745.2 1.059
745.4 1.134
745.6 1.080
745.8 1.110
746.0 1.093
746.2 1.263
746.4 1.175
746.6 1.209
746.8 1.136
747.0 1.142
747.2 1.177
747.4 1.254
747.6 1.239
747.8 1.196
748.0 1.293
748.2 1.501
748.4 1.446
748.6 1.243
748.8 1.063
749.0 1.248
749.2 1.133
749.4 1.275
749.6 1.279
749.8 1.247
750.0 1.155
750.2 1.152
750.4 1.237
750.6 1.216
750.8 1.173
751.0 1.298
751.2 1.257
751.4 1.087
751.6 1.302
751.8 1.425
752.0 1.461
752.2 1.314
752.4 1.451
752.6 1.325
752.8 1.299
753.0 1.279
753.2 1.393
753.4 1.327
753.6 1.347
753.8 1.595
754.0 1.514
754.2 1.464
754.4 1.347
754.6 1.337
754.8 1.134
755.0 1.291
755.2 1.545
755.4 1.398
755.6 1.338
755.8 1.566
756.0 1.490
756.2 1.277
756.4 1.449
756.6 1.496
756.8 1.530
757.0 1.661
757.2 1.733
757.4 1.739
757.6 1.626
757.8 1.460
758.0 1.631
758.2 1.782
758.4 1.749
758.6 1.947
758.8 1.991
759.0 1.788
759.2 1.804
759.4 1.775
759.6 1.650
759.8 1.739
760.0 1.680
760.2 1.720
760.4 1.857
760.6 1.767
760.8 1.716
761.0 1.812
761.2 1.722
761.4 1.656
761.6 1.693
761.8 1.706
762.0 1.625
762.2 1.599
762.4 1.668
762.6 1.720
762.8 1.580
763.0 1.482
763.2 1.378
763.4 1.681
763.6 1.431
763.8 1.420
764.0 1.391
764.2 1.323
764.4 1.393
764.6 1.405
764.8 1.612
765.0 1.561
765.2 1.487
765.4 1.550
765.6 1.309
765.8 1.353
766.0 1.352
766.2 1.437
766.4 1.289
766.6 1.360
766.8 1.276
767.0 1.234
767.2 1.276
767.4 1.188
767.6 1.154
767.8 1.131
768.0 1.159
768.2 1.331
768.4 1.467
768.6 1.546
768.8 1.575
769.0 1.534
769.2 1.683
769.4 1.758
769.6 1.751
769.8 1.892
770.0 1.835
770.2 2.118
770.4 2.131
770.6 2.150
770.8 2.054
771.0 2.148
771.2 2.191
771.4 2.229
771.6 2.132
771.8 2.404
772.0 2.349
772.2 2.311
772.4 2.335
772.6 2.299
772.8 2.359
773.0 2.577
773.2 2.761
773.4 2.703
773.6 2.564
773.8 2.558
774.0 2.802
774.2 2.875
774.4 2.809
774.6 2.580
774.8 2.636
775.0 2.737
775.2 2.706
775.4 2.771
775.6 2.711
775.8 2.748
776.0 2.792
776.2 3.102
776.4 3.125
776.6 3.215
776.8 3.043
777.0 3.499
777.2 3.365
777.4 3.039
777.6 3.141
777.8 3.229
778.0 3.052
778.2 3.144
778.4 3.211
778.6 3.037
778.8 3.109
779.0 3.481
779.2 3.189
779.4 2.956
779.6 3.457
779.8 3.529
780.0 3.697
780.2 3.856
780.4 3.777
780.6 3.746
780.8 3.493
781.0 3.718
781.2 3.813
781.4 3.354
781.6 3.323
781.8 3.474
782.0 3.513
782.2 3.355
782.4 3.405
782.6 3.537
782.8 3.831
783.0 4.017
783.2 3.995
783.4 4.115
783.6 3.961
783.8 4.100
784.0 4.309
784.2 4.021
784.4 3.808
784.6 3.601
784.8 3.927
785.0 3.662
785.2 3.920
785.4 3.980
785.6 4.087
785.8 4.350
786.0 4.244
786.2 4.265
786.4 4.045
786.6 3.939
786.8 3.835
787.0 3.844
787.2 3.412
787.4 3.281
787.6 3.128
787.8 3.453
788.0 3.506
788.2 3.432
788.4 3.633
788.6 4.096
788.8 3.683
789.0 3.667
789.2 3.717
789.4 3.533
789.6 3.358
789.8 3.268
790.0 3.426
790.2 3.525
790.4 3.367
790.6 3.142
790.8 3.707
791.0 3.674
791.2 3.511
791.4 3.773
791.6 3.168
791.8 2.953
792.0 3.208
792.2 3.195
792.4 3.139
792.6 3.241
792.8 3.271
793.0 3.548
793.2 3.634
793.4 3.428
793.6 3.455
793.8 3.565
794.0 3.459
794.2 3.590
794.4 3.699
794.6 3.813
794.8 3.334
795.0 3.410
795.2 3.373
795.4 3.448
795.6 3.727
795.8 3.651
796.0 3.637
796.2 3.635
796.4 3.944
796.6 3.739
796.8 3.724
797.0 3.500
797.2 3.771
797.4 3.867
797.6 3.956
797.8 4.173
798.0 4.255
798.2 3.912
798.4 4.047
798.6 4.168
798.8 4.080
799.0 4.149
799.2 3.650
799.4 3.707
799.6 4.158
799.8 3.624
800.0 3.631
800.2 3.727
800.4 3.659
800.6 4.073
800.8 3.999
801.0 3.952
801.2 4.308
801.4 4.344
801.6 4.112
801.8 3.945
802.0 3.707
802.2 3.857
802.4 4.085
802.6 3.986
802.8 4.162
803.0 4.287
803.2 4.184
803.4 3.889
803.6 3.623
803.8 3.442
804.0 3.401
804.2 4.066
804.4 4.367
804.6 4.052
804.8 3.995
805.0 4.080
805.2 3.969
805.4 4.085
805.6 4.444
805.8 4.475
806.0 4.531
806.2 4.612
806.4 4.317
806.6 4.421
806.8 4.400
807.0 4.368
807.2 4.025
807.4 4.326
807.6 4.418
807.8 4.477
808.0 4.369
808.2 3.967
808.4 4.441
808.6 4.586
808.8 4.845
809.0 4.592
809.2 4.772
809.4 4.592
809.6 4.794
809.8 4.595
810.0 4.604
810.2 4.821
810.4 4.395
810.6 4.367
810.8 4.486
811.0 3.985
811.2 4.107
811.4 4.373
811.6 4.543
811.8 4.640
812.0 4.703
812.2 4.757
812.4 4.708
812.6 4.574
812.8 4.415
813.0 4.854
813.2 4.436
813.4 4.143
813.6 4.699
813.8 4.610
814.0 4.302
814.2 4.036
814.4 4.159
814.6 4.351
814.8 4.168
815.0 4.000
815.2 3.969
815.4 3.987
815.6 4.151
815.8 3.976
816.0 4.012
816.2 3.858
816.4 3.880
816.6 3.664
816.8 3.727
817.0 3.661
817.2 3.818
817.4 4.002
817.6 3.811
817.8 3.766
818.0 3.740
818.2 3.732
818.4 3.508
818.6 3.572
818.8 3.606
819.0 3.617
819.2 3.591
819.4 3.471
819.6 3.276
819.8 3.100
820.0 2.909
820.2 2.796
820.4 2.988
820.6 2.771
820.8 2.484
821.0 2.435
821.2 2.478
821.4 2.317
821.6 2.148
821.8 2.097
822.0 1.928
822.2 1.668
822.4 1.603
822.6 1.478
822.8 1.404
823.0 1.469
823.2 1.281
823.4 1.237
823.6 1.123
823.8 1.025
824.0 1.017
824.2 0.938
824.4 0.944
824.6 0.842
824.8 0.801
825.0 0.816
825.2 0.777
825.4 0.749
825.6 0.746
825.8 0.768
826.0 0.722
826.2 0.667
826.4 0.677
826.6 0.653
826.8 0.634
827.0 0.612
827.2 0.589
827.4 0.604
827.6 0.548
827.8 0.543
828.0 0.575
828.2 0.578
828.4 0.644
828.6 0.631
828.8 0.683
829.0 0.714
829.2 0.681
829.4 0.651
829.6 0.628
829.8 0.659
830.0 0.627
830.2 0.661
830.4 0.732
830.6 0.704
830.8 0.708
831.0 0.722
831.2 0.845
831.4 0.790
831.6 0.811
831.8 0.783
832.0 0.841
832.2 0.904
832.4 1.016
832.6 1.107
832.8 1.116
833.0 1.168
833.2 1.147
833.4 1.244
833.6 1.291
833.8 1.362
834.0 1.341
834.2 1.315
834.4 1.284
834.6 1.250
834.8 1.341
835.0 1.485
835.2 1.556
835.4 1.486
835.6 1.383
835.8 1.526
836.0 1.662
836.2 1.645
836.4 1.661
836.6 1.472
836.8 1.640
837.0 1.641
837.2 1.646
837.4 1.713
837.6 1.636
837.8 1.593
838.0 1.624
838.2 1.580
838.4 1.642
838.6 1.627
838.8 1.600
839.0 1.600
839.2 1.824
839.4 1.804
839.6 1.816
839.8 1.851
840.0 1.977
840.2 1.914
840.4 2.043
840.6 1.907
840.8 1.835
841.0 2.049
841.2 2.080
841.4 2.132
841.6 2.078
841.8 2.129
842.0 2.199
842.2 2.311
842.4 2.255
842.6 2.166
842.8 2.227
843.0 2.490
843.2 2.475
843.4 2.732
843.6 2.665
843.8 2.577
844.0 2.610
844.2 2.806
844.4 2.858
844.6 3.019
844.8 2.935
845.0 3.371
845.2 3.372
845.4 3.162
845.6 3.359
845.8 3.738
846.0 3.285
846.2 3.175
846.4 3.631
846.6 3.802
846.8 3.901
847.0 4.216
847.2 4.316
847.4 4.511
847.6 4.648
847.8 4.432
848.0 4.337
848.2 4.464
848.4 4.389
848.6 4.685
848.8 4.743
849.0 4.881
849.2 5.465
849.4 5.289
849.6 4.995
849.8 5.278
850.0 5.320
850.2 5.119
850.4 4.980
850.6 5.562
850.8 5.572
851.0 6.085
851.2 5.936
851.4 6.102
851.6 6.396
851.8 6.556
852.0 6.652
852.2 6.190
852.4 6.209
852.6 6.806
852.8 7.089
853.0 6.738
853.2 6.505
853.4 7.027
853.6 7.062
853.8 7.048
854.0 7.338
854.2 7.561
854.4 7.594
854.6 7.808
854.8 7.944
855.0 8.219
855.2 7.966
855.4 8.837
855.6 8.217
855.8 7.777
856.0 8.145
856.2 7.913
856.4 7.870
856.6 7.863
856.8 7.267
857.0 7.007
857.2 7.323
857.4 7.415
857.6 7.642
857.8 7.207
858.0 7.115
858.2 6.947
858.4 7.569
858.6 7.088
858.8 6.924
859.0 6.802
859.2 6.983
859.4 7.749
859.6 7.545
859.8 7.949
860.0 7.926
860.2 7.237
860.4 6.912
860.6 7.068
860.8 7.358
861.0 7.047
861.2 7.314
861.4 7.386
861.6 8.215
861.8 7.968
862.0 7.388
862.2 7.433
862.4 6.874
862.6 6.861
862.8 6.979
863.0 7.098
863.2 7.570
863.4 7.596
863.6 7.507
863.8 7.295
864.0 7.045
864.2 6.823
864.4 6.693
864.6 6.794
864.8 7.246
865.0 7.478
865.2 7.324
865.4 6.425
865.6 6.756
865.8 6.975
866.0 7.203
866.2 6.765
866.4 6.326
866.6 6.390
866.8 6.678
867.0 6.541
867.2 6.311
867.4 5.836
867.6 5.468
867.8 5.535
868.0 5.711
868.2 6.037
868.4 5.732
868.6 5.805
868.8 6.108
869.0 5.866
869.2 5.591
869.4 5.726
869.6 6.389
869.8 6.090
870.0 6.152
870.2 5.792
870.4 5.600
870.6 5.566
870.8 5.131
871.0 5.498
871.2 5.514
871.4 5.201
871.6 5.375
871.8 4.786
872.0 4.655
872.2 4.334
872.4 4.263
872.6 4.480
872.8 4.273
873.0 4.410
873.2 4.342
873.4 4.200
873.6 4.360
873.8 4.367
874.0 4.405
874.2 4.552
874.4 4.185
874.6 4.201
874.8 3.889
875.0 3.541
875.2 3.817
875.4 3.958
875.6 3.671
875.8 3.466
876.0 3.496
876.2 3.477
876.4 3.723
876.6 3.623
876.8 3.533
877.0 3.774
877.2 3.816
877.4 3.597
877.6 3.397
877.8 3.383
878.0 3.087
878.2 3.054
878.4 2.902
878.6 2.802
878.8 2.695
879.0 2.793
879.2 2.792
879.4 2.648
879.6 2.599
879.8 2.433
880.0 2.292
880.2 2.112
880.4 2.031
880.6 1.854
880.8 1.792
881.0 1.692
881.2 1.578
881.4 1.417
881.6 1.419
881.8 1.381
882.0 1.337
882.2 1.173
882.4 1.206
882.6 1.078
882.8 0.981
883.0 0.941
883.2 0.940
883.4 0.891
883.6 0.760
883.8 0.817
884.0 0.769
884.2 0.711
884.4 0.699
884.6 0.700
884.8 0.679
885.0 0.593
885.2 0.564
885.4 0.525
885.6 0.519
885.8 0.485
886.0 0.458
886.2 0.461
886.4 0.456
886.6 0.440
886.8 0.432
887.0 0.429
887.2 0.439
887.4 0.473
887.6 0.454
887.8 0.447
888.0 0.475
888.2 0.455
888.4 0.446
888.6 0.427
888.8 0.499
889.0 0.493
889.2 0.481
889.4 0.492
889.6 0.500
889.8 0.515
890.0 0.482
890.2 0.520
890.4 0.526
890.6 0.548
890.8 0.558
891.0 0.612
891.2 0.582
891.4 0.530
891.6 0.654
891.8 0.710
892.0 0.693
892.2 0.694
892.4 0.757
892.6 0.749
892.8 0.741
893.0 0.721
893.2 0.703
893.4 0.754
893.6 0.766
893.8 0.787
894.0 0.727
894.2 0.805
894.4 0.781
894.6 0.689
894.8 0.742
895.0 0.735
895.2 0.648
895.4 0.621
895.6 0.567
895.8 0.596
896.0 0.617
896.2 0.673
896.4 0.670
896.6 0.625
896.8 0.686
897.0 0.733
897.2 0.675
897.4 0.672
897.6 0.540
897.8 0.469
898.0 0.434
898.2 0.468
898.4 0.413
898.6 0.455
898.8 0.488
899.0 0.550
899.2 0.554
899.4 0.532
899.6 0.499
899.8 0.433
900.0 0.414
##END=
